
################# geometry #################

neighbor	1.0 bin
neigh_modify delay 5 every 1

lattice 	fcc ${liq_dens}
lattice 	fcc 0.8389
Lattice spacing in x,y,z = 1.68313 1.68313 1.68313

region 		sim_box block 	0 ${sim_box_x} 0 ${sim_box_y} 0 ${sim_box_z} units box
region 		sim_box block 	0 25 0 ${sim_box_y} 0 ${sim_box_z} units box
region 		sim_box block 	0 25 0 25 0 ${sim_box_z} units box
region 		sim_box block 	0 25 0 25 0 25 units box
region 		liq_init block 	0 ${liq_x} 0 ${liq_y} 0 ${liq_z} units box
region 		liq_init block 	0 25 0 ${liq_y} 0 ${liq_z} units box
region 		liq_init block 	0 25 0 25 0 ${liq_z} units box
region 		liq_init block 	0 25 0 25 0 25 units box

################# create and initialize atoms {if not restarting} #############################

create_box	1 sim_box
Created orthogonal box = (0 0 0) to (25 25 25)
  2 by 2 by 4 processor grid

create_atoms	1 region liq_init
Created 13500 atoms

mass		1 ${mass}
mass		1 1

# LJ potentials
pair_style	lj/cut ${r_cutoff}
pair_style	lj/cut 4
pair_coeff	* * 1.0 1.0 ${r_cutoff}
pair_coeff	* * 1.0 1.0 4

########### computes and fixes ##################################

#compute coord_a all coord/atom ${r_cutoff}
#compute ke all ke/atom 
#compute epair all pe/atom
#compute stress all stress/atom

### only needed if not restarting ###
velocity     all create ${t_init} 482778 dist gaussian
velocity     all create 1 482778 dist gaussian

fix 1 all nve
fix 2 all temp/rescale 100 ${t_init} ${t_final} 0.01 1.0
fix 2 all temp/rescale 100 1 ${t_final} 0.01 1.0
fix 2 all temp/rescale 100 1 0.709515 0.01 1.0

fix 3 all rdf 500 ${pwd}/rdf_from_beginning.dat 100 1 1
fix 3 all rdf 500 /home/dtlussier/rdfval2/rdf_from_beginning.dat 100 1 1

# THis is for newer version of LAMMPS
# compute myRDF all rdf 100
# fix 2 all ave/time 100 1 100 c_myRDF file tmp.rdf mode vector 



###################### EQULIBRATION ###############################################

timestep		${time_step}
timestep		0.005
thermo_style	custom step temp press pe ke etotal enthalpy epair vol pxx pyy pzz pxy pxz pyz xlo xhi ylo yhi zlo zhi
thermo			${thermo_freq}
thermo			1000

# creates dumps directory - so DO NOT MAKE BEFORE
shell			mkdir ${pwd}/dumps
shell			mkdir /home/dtlussier/rdfval2/dumps
dump			mydump all custom ${dump_freq_equil} ${pwd}/dumps/dump_argon_state_${job_name}_*.out id type mass x y z ix iy iz xs ys zs xu yu zu vx vy vz fx fy fz
dump			mydump all custom 10000 ${pwd}/dumps/dump_argon_state_${job_name}_*.out id type mass x y z ix iy iz xs ys zs xu yu zu vx vy vz fx fy fz
dump			mydump all custom 10000 /home/dtlussier/rdfval2/dumps/dump_argon_state_${job_name}_*.out id type mass x y z ix iy iz xs ys zs xu yu zu vx vy vz fx fy fz
dump			mydump all custom 10000 /home/dtlussier/rdfval2/dumps/dump_argon_state_rdfval2_*.out id type mass x y z ix iy iz xs ys zs xu yu zu vx vy vz fx fy fz

minimize 1.0e-4 1.0e-6 1000 100000
Memory usage per processor = 3.30676 Mbytes
Step Temp Press PotEng KinEng TotEng Enthalpy E_pair Volume Pxx Pyy Pzz Pxy Pxz Pyz Xlo Xhi Ylo Yhi Zlo Zhi 
       0            1   -3.9613314   -6.9045944    1.4998889   -5.4047056   -9.9895799   -6.9045944        15625   -3.9715287   -3.9583432   -3.9541224 -0.0071580361 0.0021962391 -0.003032285            0           25            0           25            0           25 
       9            1   -5.8275589    -7.287962    1.4998889   -5.7880731   -12.532933    -7.287962        15625   -5.8377561   -5.8245707   -5.8203498 -0.0071580361 0.0021962391 -0.003032285            0           25            0           25            0           25 
Loop time of 0.382264 on 16 procs for 9 steps with 13500 atoms

Minimization stats:
  Stopping criterion = energy tolerance
  Energy initial, next-to-last, final = 
        -6.90459444953     -7.28787959878     -7.28796199062
  Force two-norm initial, final = 5697.99 65.2701
  Force max component initial, final = 525.454 6.89137
  Final line search alpha, max atom move = 0.0005734 0.00395151
  Iterations, force evaluations = 9 25

Pair  time (%) = 0.143857 (37.6329)
Neigh time (%) = 0 (0)
Comm  time (%) = 0.0749484 (19.6065)
Outpt time (%) = 0 (0)
Other time (%) = 0.163458 (42.7606)

Nlocal:    843.75 ave 900 max 787 min
Histogram: 8 0 0 0 0 0 0 0 0 8
Nghost:    6264 ave 6390 max 6138 min
Histogram: 8 0 0 0 0 0 0 0 0 8
Neighs:    189608 ave 195474 max 178227 min
Histogram: 3 1 0 0 0 0 1 2 5 4

Total # of neighbors = 3033732
Ave neighs/atom = 224.721
Neighbor list builds = 0
Dangerous builds = 0

run	 ${equil_ts} upto
run	 500000 upto
Memory usage per processor = 2.62011 Mbytes
Step Temp Press PotEng KinEng TotEng Enthalpy E_pair Volume Pxx Pyy Pzz Pxy Pxz Pyz Xlo Xhi Ylo Yhi Zlo Zhi 
       9            1   -5.8275589    -7.287962    1.4998889   -5.7880731   -12.532933    -7.287962        15625   -5.8377561   -5.8245707   -5.8203498 -0.0071580361 0.0021962391 -0.003032285            0           25            0           25            0           25 
    1000   0.99103822    2.3252693   -5.8022448    1.4864472   -4.3157976   -1.6245137   -5.8022448        15625     2.363993    2.3454749      2.26634 0.00017281587  0.078157144   0.06178631            0           25            0           25            0           25 
    2000   0.99802487    2.4594361   -5.7776816    1.4969264   -4.2807552   -1.4341857   -5.7776816        15625    2.5215551    2.4162789    2.4404742  -0.02603521  0.028738535   0.01893361            0           25            0           25            0           25 
    3000   0.99189194    2.5088262   -5.7684913    1.4877277   -4.2807636   -1.3770295   -5.7684913        15625     2.479392     2.541827    2.5052597 -0.048398391  0.028305206  0.024767843            0           25            0           25            0           25 
    4000    1.0060889    2.5137685   -5.7708271    1.5090216   -4.2618055   -1.3523513   -5.7708271        15625    2.4339178    2.5288413    2.5785463   0.03299035 0.0022206089 0.0044618855            0           25            0           25            0           25 
    5000   0.99611017    2.4790193   -5.7729783    1.4940546   -4.2789237   -1.4096885   -5.7729783        15625    2.4734417    2.4794784    2.4841376 -0.083496125 -0.0014116983 -0.036719683            0           25            0           25            0           25 
    6000   0.99169773    2.4445524    -5.781856    1.4874364   -4.2944196   -1.4650766    -5.781856        15625    2.5417593    2.3930167    2.3988813 -0.093171311 -0.067885571 -0.080907909            0           25            0           25            0           25 
    7000    0.9948035    2.3999565   -5.7865323    1.4920947   -4.2944376   -1.5167102   -5.7865323        15625    2.4499334     2.386614    2.3633219 -0.026143961 -0.019485411  0.042660229            0           25            0           25            0           25 
    8000   0.99405812    2.4960446   -5.7703061    1.4909767   -4.2793294   -1.3903889   -5.7703061        15625    2.5267197    2.4411141       2.5203  0.064210087  0.030540779   0.05346542            0           25            0           25            0           25 
    9000   0.98717038    2.4536018   -5.7755033    1.4806459   -4.2948574   -1.4550405   -5.7755033        15625    2.3955828    2.4385565    2.5266662 -0.0011404294  0.060247966 -0.076844674            0           25            0           25            0           25 
   10000   0.99671022     2.427133   -5.7839594    1.4949546   -4.2890048    -1.479823   -5.7839594        15625    2.4699255    2.3377688    2.4737048  -0.06537366  0.030592636 -0.038211519            0           25            0           25            0           25 
   11000   0.99034606    2.3666443   -5.7900345    1.4854091   -4.3046254   -1.5654538   -5.7900345        15625    2.3026393    2.3722598    2.4250337 0.0052569991 -0.036013412  0.016448826            0           25            0           25            0           25 
   12000    0.9909899    2.4115124   -5.7862517    1.4863747    -4.299877   -1.5087747   -5.7862517        15625    2.3626394    2.4900003    2.3818974  0.059813383 -0.037308221  0.056855093            0           25            0           25            0           25 
   13000   0.99347534    2.3868445   -5.7899203    1.4901026   -4.2998177   -1.5372662   -5.7899203        15625    2.3962342    2.4270942    2.3372051 -0.021476398 -0.087025583 -0.048065283            0           25            0           25            0           25 
   14000   0.98491594    2.4561246   -5.7770217    1.4772645   -4.2997573   -1.4570204   -5.7770217        15625    2.4163704    2.4920778    2.4599256 -0.036867322 -0.034906642 -0.054041874            0           25            0           25            0           25 
   15000   0.99199019     2.401802   -5.7877529    1.4878751   -4.2998779   -1.5200145   -5.7877529        15625    2.3493126    2.3276054    2.5284879  0.033835153 -0.0045948384 -0.038239897            0           25            0           25            0           25 
   16000   0.99237319    2.4156974   -5.7858697    1.4884495   -4.2974202   -1.5014742   -5.7858697        15625    2.3895045    2.4737552    2.3838323 -0.010253522 -0.020996335  0.047238238            0           25            0           25            0           25 
   17000   0.99132771    2.3606637   -5.7998015    1.4868814   -4.3129201   -1.5806704   -5.7998015        15625    2.3458645    2.4319913    2.3041352 -0.040946114 0.0013039347 -0.030096989            0           25            0           25            0           25 
   18000     0.994253    2.3999407   -5.7878568     1.491269   -4.2965877   -1.5188786   -5.7878568        15625    2.4194281    2.4191412    2.3612527 -0.012141784 -0.023705865    -0.035799            0           25            0           25            0           25 
   19000    0.9889666    2.3664712   -5.7952442      1.48334   -4.3119042   -1.5729329   -5.7952442        15625    2.4485313    2.3446059    2.3062764  0.088230867 -0.067969889  0.029917896            0           25            0           25            0           25 
   20000   0.98714876    2.3749962   -5.7925349    1.4806135   -4.3119214   -1.5630833   -5.7925349        15625    2.2402463    2.4601302    2.4246121  0.061315659  0.050001035 -0.025893734            0           25            0           25            0           25 
   21000   0.99713106    2.4011675   -5.7882164    1.4955858   -4.2926306   -1.5135015   -5.7882164        15625     2.324683    2.4335056    2.4453139  0.029678052 -0.042974881  0.056223239            0           25            0           25            0           25 
   22000    0.9910506    2.3447852   -5.7982714    1.4864658   -4.3118056   -1.5979338   -5.7982714        15625    2.4133423     2.255416    2.3655974 -0.043900836  0.062771809   0.02507038            0           25            0           25            0           25 
   23000   0.98612856    2.3841349   -5.7908812    1.4790833   -4.3117979   -1.5523826   -5.7908812        15625    2.3481115    2.3963289    2.4079642 -0.059921108 -0.0031535542 0.0070264265            0           25            0           25            0           25 
   24000    0.9860617    2.3155414     -5.80587     1.478983    -4.326887   -1.6468622     -5.80587        15625    2.2004621    2.4169538    2.3292083 -0.022772026 -0.017290936 -0.018811764            0           25            0           25            0           25 
   25000   0.97991746    2.4428334   -5.7807023    1.4697673    -4.310935   -1.4835816   -5.7807023        15625    2.4120265    2.3985218    2.5179519 0.0083690867 0.0023214951  0.037731903            0           25            0           25            0           25 
   26000   0.98480626    2.4013415   -5.7881323       1.4771   -4.3110324   -1.5317019   -5.7881323        15625    2.4451765    2.3946873    2.3641608 -0.050779413 -0.067928619 -0.016517022            0           25            0           25            0           25 
   27000   0.98813285    2.3813582   -5.7924298    1.4820895   -4.3103403   -1.5541387   -5.7924298        15625    2.3795911    2.4590727    2.3054107 -0.034018663  0.063064594  0.065986191            0           25            0           25            0           25 
   28000   0.98227522    2.3369948   -5.7996634    1.4733037   -4.3263597   -1.6215046   -5.7996634        15625    2.2788173    2.3613912     2.370776 -0.061054366 -0.039433181  0.027739026            0           25            0           25            0           25 
   29000    0.9756937    2.3926943   -5.7897953    1.4634321   -4.3263631    -1.557041   -5.7897953        15625    2.4451274    2.3025657    2.4303899 -0.054814191 -0.016671839 -0.011234222            0           25            0           25            0           25 
   30000   0.98874271    2.2922709    -5.809323    1.4830042   -4.3263188   -1.6732274    -5.809323        15625    2.2896793    2.3016764    2.2854571 -0.025124157 0.0052746639  0.029221392            0           25            0           25            0           25 
   31000   0.97611012    2.3633635   -5.7903681    1.4640567   -4.3263114    -1.590937   -5.7903681        15625    2.3490424    2.3478999    2.3931482 -0.016653675 0.0070627374  0.037733647            0           25            0           25            0           25 
   32000   0.98400527    2.3585681   -5.8000476    1.4758986   -4.3241491   -1.5943249   -5.8000476        15625    2.3059262    2.3601061    2.4096721  0.033478801  -0.11139066 -0.013822824            0           25            0           25            0           25 
   33000   0.98221481    2.3709781   -5.7973778    1.4732131   -4.3241647    -1.579977   -5.7973778        15625    2.2874981    2.3731914    2.4522449  0.031599514 -0.0050092486 -0.0068103904            0           25            0           25            0           25 
   34000   0.97073563    2.3558739   -5.7954079    1.4559956   -4.3394123   -1.6127063   -5.7954079        15625    2.3112523    2.3866145    2.3697551 -0.086786758   0.01934613 -0.029045093            0           25            0           25            0           25 
   35000   0.97741282     2.313699   -5.8054102    1.4660106   -4.3393995   -1.6615072   -5.8054102        15625    2.2739974     2.304488    2.3626116  0.044090519  0.097047433  -0.14513328            0           25            0           25            0           25 
   36000   0.97419063    2.4091304   -5.7848002    1.4611777   -4.3236225   -1.5352772   -5.7848002        15625    2.3920146    2.4135046     2.421872 0.0040578901    0.0380722 -0.038837493            0           25            0           25            0           25 
   37000   0.97774501    2.3134727   -5.8058493    1.4665089   -4.3393404     -1.66171   -5.8058493        15625    2.3953385    2.2834813    2.2615982  0.030404868  0.010031253  0.033422762            0           25            0           25            0           25 
   38000   0.98259879    2.3717323   -5.7948746     1.473789   -4.3210856   -1.5760251   -5.7948746        15625    2.3705754    2.3085013    2.4361201  0.034964801  -0.00829812 -0.078719437            0           25            0           25            0           25 
   39000   0.98020342    2.3087105   -5.8074308    1.4701962   -4.3372346    -1.665116   -5.8074308        15625    2.3113758    2.2484667     2.366289 -0.0046112651  0.037220487  0.032551998            0           25            0           25            0           25 
   40000    0.9731226    2.3271794   -5.7967709    1.4595758   -4.3371951   -1.6437005   -5.7967709        15625    2.3709339    2.2804538    2.3301504 -0.044748656 -0.00078028963   0.06376124            0           25            0           25            0           25 
   41000   0.97586231    2.3183886    -5.800956     1.463685    -4.337271   -1.6539509    -5.800956        15625     2.286373    2.3669484    2.3018443  0.017245569 -0.050991055 -0.010832153            0           25            0           25            0           25 
   42000   0.97588508    2.3219949   -5.8009388    1.4637192   -4.3372196   -1.6497256   -5.8009388        15625    2.3264459    2.3875101    2.2520286 -0.033289639 -0.046291478  0.028794698            0           25            0           25            0           25 
   43000    0.9709195    2.3670604   -5.7934454    1.4562714    -4.337174   -1.5975207   -5.7934454        15625    2.3560739    2.3110188    2.4340885 -0.023052784  0.024697692 -0.038153308            0           25            0           25            0           25 
   44000   0.97840433      2.30685   -5.8046697    1.4674978    -4.337172   -1.6672067   -5.8046697        15625    2.2626241    2.3161621    2.3417638  0.028624337 -0.072107309 -0.041880094            0           25            0           25            0           25 
   45000    0.9827611    2.2567764    -5.811208    1.4740324   -4.3371756   -1.7251659    -5.811208        15625     2.262453    2.2543124    2.2535637 -0.014725991  0.012009631 -0.032252687            0           25            0           25            0           25 
   46000   0.97008648    2.2908259   -5.8083384    1.4550219   -4.3533165   -1.7018976   -5.8083384        15625    2.3039693    2.2850111    2.2834972  0.032363839   0.02673795  0.045259745            0           25            0           25            0           25 
   47000   0.97380192    2.2768109    -5.813938    1.4605947   -4.3533433   -1.7181455    -5.813938        15625    2.2205108    2.2601248    2.3497971 -0.034337493 -0.017758697  0.040655729            0           25            0           25            0           25 
   48000   0.97774884     2.249123   -5.8198734    1.4665146   -4.3533588   -1.7502071   -5.8198734        15625    2.2345328    2.3306067    2.1822295  0.037043091 -0.017278245 -0.0065221397            0           25            0           25            0           25 
   49000   0.96876094    2.3891692   -5.7891041    1.4530338   -4.3360703   -1.5708282   -5.7891041        15625    2.4051735    2.3719842    2.3903499  -0.06853284 -0.060385764 -0.038422035            0           25            0           25            0           25 
   50000   0.96689972    2.3076384   -5.8026728    1.4502421   -4.3524307   -1.6815529   -5.8026728        15625    2.2471412    2.3382285    2.3375454 -0.033514976  0.012281466  0.020445666            0           25            0           25            0           25 
   51000   0.96667872    2.3133285   -5.8023772    1.4499107   -4.3524665    -1.675003   -5.8023772        15625     2.269683    2.3076068    2.3626956  0.063531876 -0.017304314 -0.056824525            0           25            0           25            0           25 
   52000   0.97307689    2.2666597   -5.8119588    1.4595072   -4.3524516   -1.7290029   -5.8119588        15625    2.2630605    2.1818448    2.3550737 -0.067778937   0.05365859 -0.045629164            0           25            0           25            0           25 
   53000   0.97808834     2.237835   -5.8195207    1.4670238   -4.3524969   -1.7624101   -5.8195207        15625    2.1920371    2.2369312    2.2845367 -0.043712628 -0.034331281 -0.0069620874            0           25            0           25            0           25 
   54000   0.96326968    2.3355314   -5.7972368    1.4447975   -4.3524394    -1.649278   -5.7972368        15625    2.3025506    2.3835404    2.3205033 -0.0026896783  0.029221352 -0.083499113            0           25            0           25            0           25 
   55000   0.96963586    2.1772775    -5.829214    1.4543461    -4.374868   -1.8548709    -5.829214        15625    2.1434515    2.1960254    2.1923555 -0.020641607 -0.0091135727 0.0034466394            0           25            0           25            0           25 
   56000   0.97689506    2.2191791   -5.8214327     1.465234   -4.3561986   -1.7877043   -5.8214327        15625    2.3064629    2.2137571    2.1373172 -0.0070285215 -0.019221883  0.044932855            0           25            0           25            0           25 
   57000   0.96688934    2.3048615   -5.8037941    1.4502266   -4.3535675   -1.6859037   -5.8037941        15625    2.3408123     2.247895    2.3258772  0.012785744 -0.020747561  0.058306042            0           25            0           25            0           25 
   58000   0.96938719    2.2988562   -5.8031039    1.4539731   -4.3491308   -1.6884177   -5.8031039        15625    2.4006399    2.2708279    2.2251008  0.031319101 -0.0034703185 -0.010220364            0           25            0           25            0           25 
   59000   0.96936187    2.3029415   -5.8046377    1.4539351   -4.3507026   -1.6852611   -5.8046377        15625     2.293455    2.2865316    2.3288379  0.029898675 -0.028446396  0.069362777            0           25            0           25            0           25 
   60000   0.96450268     2.255824   -5.8157652    1.4466468   -4.3691184    -1.758211   -5.8157652        15625    2.2750511    2.3389777     2.153443 -0.067208614 -0.053241507   0.03945796            0           25            0           25            0           25 
   61000   0.96794632    2.2092124    -5.820988    1.4518119   -4.3691761   -1.8122173    -5.820988        15625    2.2956107    2.1705366    2.1614899  0.028843481  0.015247531 -0.062236482            0           25            0           25            0           25 
   62000   0.96818475    2.2249874   -5.8213268    1.4521695   -4.3691573   -1.7939404   -5.8213268        15625    2.1463298    2.2128783    2.3157542  0.054704187 0.0098835529   0.02636272            0           25            0           25            0           25 
   63000   0.97195745    2.1909991     -5.82703    1.4578282   -4.3692019   -1.8333232     -5.82703        15625    2.2534755    2.1249008    2.1946211 -0.044812981 -0.0057185874  0.018246579            0           25            0           25            0           25 
   64000   0.96777296    2.2038809   -5.8219211    1.4515519   -4.3703692   -1.8195811   -5.8219211        15625    2.1672788    2.2936625    2.1507013 -0.0037376423 -0.051416064 -0.088680114            0           25            0           25            0           25 
   65000    0.9586589    2.2826155   -5.8082156    1.4378818   -4.3703338   -1.7284177   -5.8082156        15625    2.1656065    2.3379581    2.3442818  0.020424097  0.031220014   0.11927327            0           25            0           25            0           25 
   66000   0.96913269    2.1990841    -5.824018    1.4535913   -4.3704267   -1.8251904    -5.824018        15625    2.1769745    2.2032886    2.2169893 -0.056356339  0.040374512  0.042434802            0           25            0           25            0           25 
   67000   0.95832726    2.2848581   -5.8076986    1.4373844   -4.3703142   -1.7258024   -5.8076986        15625    2.2999114     2.221661    2.3330021 0.0095095621 -0.0014543265 -0.030724301            0           25            0           25            0           25 
   68000   0.96240042    2.2617284   -5.8138539    1.4434937   -4.3703602    -1.752619   -5.8138539        15625    2.2389111    2.2455598    2.3007142  0.036316807 -0.0043922112 0.0076693846            0           25            0           25            0           25 
   69000   0.95481333    2.2212959   -5.8177574    1.4321139   -4.3856435   -1.8146991   -5.8177574        15625    2.2997293    2.2249707    2.1391877  0.059160928 -0.022477928 -0.049470076            0           25            0           25            0           25 
   70000   0.96213021    2.1870009   -5.8287226    1.4430884   -4.3856342   -1.8543832   -5.8287226        15625    2.1745458    2.2063853    2.1800715 -0.039710324 -0.039246967  0.018686747            0           25            0           25            0           25 
   71000   0.95555984    2.2096322   -5.8188269    1.4332336   -4.3855934   -1.8281487   -5.8188269        15625      2.22535    2.1581256    2.2454211  0.016021408  0.050908718  0.019704413            0           25            0           25            0           25 
   72000   0.96330075    2.1690071   -5.8305146    1.4448441   -4.3856705   -1.8752456   -5.8305146        15625    2.1873747    2.1935801    2.1260664  0.013585831  0.021680145 0.0092777867            0           25            0           25            0           25 
   73000   0.96134471    2.1864057   -5.8275068    1.4419102   -4.3855965   -1.8550344   -5.8275068        15625    2.1155732    2.1838875    2.2597562 -0.028238169  0.033255795 0.0095567914            0           25            0           25            0           25 
   74000   0.95653935    2.2187304    -5.820315    1.4347027   -4.3856123   -1.8176373    -5.820315        15625    2.1798387    2.2307301    2.2456223 -0.019322238 -0.0029028419 -0.049657517            0           25            0           25            0           25 
   75000   0.96172875    2.2672308   -5.8113126    1.4424863   -4.3688264   -1.7447167   -5.8113126        15625    2.2625574    2.2629371    2.2761978  0.038763197  -0.07383077  -0.04315672            0           25            0           25            0           25 
   76000   0.96008422    2.2051256   -5.8287199    1.4400197   -4.3887003   -1.8364716   -5.8287199        15625    2.2122788     2.247259    2.1558388 -0.030978134  0.022203849  0.039784363            0           25            0           25            0           25 
   77000   0.95459474    2.2252188   -5.8205277     1.431786   -4.3887417    -1.813257   -5.8205277        15625    2.2995768    2.1253745    2.2507051    0.0643388  0.053433507 -0.023107353            0           25            0           25            0           25 
   78000    0.9529614    2.1567652   -5.8340023    1.4293362   -4.4046661   -1.9084101   -5.8340023        15625    2.1996168    2.1328735    2.1378052  0.076763228 0.0089117474 -0.068864386            0           25            0           25            0           25 
   79000   0.95220002    2.2501768   -5.8142317    1.4281942   -4.3860375   -1.7816662   -5.8142317        15625    2.2081339     2.324546    2.2178504  0.013096038 -0.0092696375 -5.9773499e-05            0           25            0           25            0           25 
   80000   0.94874796    2.2025088   -5.8262765    1.4230165   -4.4032599   -1.8540599   -5.8262765        15625    2.1739432    2.1990464    2.2345369  0.023874774 -0.017450224 -0.012504141            0           25            0           25            0           25 
   81000   0.95294581    2.0969061   -5.8419469    1.4293128   -4.4126341   -1.9856595   -5.8419469        15625    2.1287832    2.0793042    2.0826308  0.014498165 -0.039198241  0.029504081            0           25            0           25            0           25 
   82000   0.94800598    2.2563076   -5.8127504    1.4219036   -4.3908467   -1.7793796   -5.8127504        15625    2.2103127    2.3065202    2.2520899   0.01839325  0.060849861 -0.0017177037            0           25            0           25            0           25 
   83000   0.95159057    2.2146505    -5.818105    1.4272801   -4.3908249    -1.827572    -5.818105        15625    2.2629287    2.0889908     2.292032 -0.0040556316  0.066348931  0.017774201            0           25            0           25            0           25 
   84000   0.94625891    2.1448123   -5.8311787    1.4192832   -4.4118955   -1.9294739   -5.8311787        15625    2.1465359    2.2154508    2.0724502  0.020176673 -0.009705104  -0.01382965            0           25            0           25            0           25 
   85000   0.94789076    2.1494891    -5.833659    1.4217308   -4.4119282   -1.9240935    -5.833659        15625    2.1886622    2.1972248    2.0625804  0.032259993  0.039293321  0.046998457            0           25            0           25            0           25 
   86000   0.94649133    2.2359003   -5.8145648    1.4196318    -4.394933   -1.8070854   -5.8145648        15625    2.2870524    2.2838698    2.1367787 -0.048642686 -0.010039547 -0.037407355            0           25            0           25            0           25 
   87000   0.94945993    2.1341346   -5.8344615    1.4240844   -4.4103771   -1.9403139   -5.8344615        15625    2.0971325    2.0776448    2.2276265  0.017000791  0.045180483 -0.047110212            0           25            0           25            0           25 
   88000   0.94887895    2.2064174   -5.8241309     1.423213   -4.4009179   -1.8471941   -5.8241309        15625    2.1690881    2.1671621     2.283002 0.0068829117 -0.053814188 -0.031251258            0           25            0           25            0           25 
   89000   0.94399059    2.1447611   -5.8352111     1.415881   -4.4193301   -1.9369677   -5.8352111        15625    2.0784062    2.1098109    2.2460662 -0.018809114 -0.042575634 -0.029575028            0           25            0           25            0           25 
   90000   0.94065412    2.2246765   -5.8141753    1.4108767   -4.4032986   -1.8284415   -5.8141753        15625    2.3034462    2.1986349    2.1719485  0.049186249  0.009942889 -0.039130747            0           25            0           25            0           25 
   91000   0.95071535    2.1606509   -5.8292998    1.4259674   -4.4033324    -1.902579   -5.8292998        15625    2.1164101    2.2539357     2.111607 -0.0011540039 -0.064720242 -0.0098691803            0           25            0           25            0           25 
   92000   0.95407776    2.1509221   -5.8344005    1.4310106   -4.4033899   -1.9138967   -5.8344005        15625    2.2018014    2.1398581    2.1111067   0.10556385 -0.037299236 -0.036691983            0           25            0           25            0           25 
   93000   0.94734244    2.1145091   -5.8409038    1.4209084   -4.4199954    -1.972647   -5.8409038        15625    2.1117537    2.1112685     2.120505 -0.0061636616 0.00034170665   0.10621686            0           25            0           25            0           25 
   94000   0.93922474    2.1550512   -5.8286613    1.4087327   -4.4199286   -1.9256563   -5.8286613        15625    2.1585631    2.1002553    2.2063353  0.024154867 0.0094059723 -0.0031411519            0           25            0           25            0           25 
   95000   0.94893779     2.086333   -5.8432811    1.4233013   -4.4199799   -2.0052425   -5.8432811        15625    2.1378872    2.1391341    1.9819779  0.031098767 -0.018199365 -0.068866251            0           25            0           25            0           25 
   96000   0.94306646     2.144303   -5.8345071    1.4144949   -4.4200122   -1.9381799   -5.8345071        15625    2.1381524    2.1702895    2.1244672 -0.00036930792  0.032080726 -0.038954399            0           25            0           25            0           25 
   97000   0.94606409    2.1158571   -5.8390316     1.418991   -4.4200406   -1.9711319   -5.8390316        15625    2.1785491    2.1486355    2.0203866  0.082493565 -0.0013867291 -0.025761509            0           25            0           25            0           25 
   98000   0.93861585    2.1610326   -5.8277499    1.4078195   -4.4199304   -1.9187352   -5.8277499        15625    2.1375857    2.1871977    2.1583145  -0.01248509  0.044420676   -0.0422105            0           25            0           25            0           25 
   99000   0.93676343    2.1795489   -5.8249502    1.4050411   -4.4199091   -1.8972831   -5.8249502        15625    2.1386015     2.214175    2.1858704 -0.040068212  0.020514255  0.075505767            0           25            0           25            0           25 
  100000   0.93432357    2.1017641   -5.8380361    1.4013815   -4.4366546   -2.0040573   -5.8380361        15625    2.1277144    2.0796478      2.09793  -0.01716248 -0.025989614 -0.035993948            0           25            0           25            0           25 
  101000   0.94195587     2.142826   -5.8321314    1.4128291   -4.4193023   -1.9391797   -5.8321314        15625    2.1882022    2.1258614    2.1144143 -0.029278822 -0.065195768  0.038077878            0           25            0           25            0           25 
  102000   0.93683339    2.0985209   -5.8406518     1.405146   -4.4355058   -2.0066622   -5.8406518        15625    2.0578282    2.1406551    2.0970793 -0.0027337701   -0.0453192 -0.057743633            0           25            0           25            0           25 
  103000   0.93318657    2.1242235   -5.8352481    1.3996762   -4.4355719   -1.9769799   -5.8352481        15625    2.1254224    2.0779133    2.1693348 -0.041281391 -0.010730605 -0.030480394            0           25            0           25            0           25 
  104000   0.93071673    2.2131258   -5.8155822    1.3959717   -4.4196106   -1.8581223   -5.8155822        15625    2.1823273     2.167677    2.2893732 -0.028470636  0.015421848 -0.036818797            0           25            0           25            0           25 
  105000   0.93804007    2.0600781   -5.8448284    1.4069559   -4.4378725   -2.0535229   -5.8448284        15625    1.9765258    2.0902631    2.1134453  0.054780169 -0.027633117 0.00060057568            0           25            0           25            0           25 
  106000   0.93375221     2.135711   -5.8384165    1.4005246    -4.437892   -1.9660042   -5.8384165        15625    2.1698524     2.086535    2.1507455  0.015549031  0.027156644 0.0093000032            0           25            0           25            0           25 
  107000    0.9296914    2.1376075   -5.8322753    1.3944338   -4.4378415   -1.9637588   -5.8322753        15625    2.1841878    2.1592366    2.0693981 0.0010019389  -0.04541662 -0.040715814            0           25            0           25            0           25 
  108000   0.93051301    2.1200043   -5.8335545    1.3956661   -4.4378883   -1.9841796   -5.8335545        15625    2.2286052    2.0447794    2.0866284  0.048989218 -0.028284112 0.0098734605            0           25            0           25            0           25 
  109000   0.93381698    2.1016723   -5.8384446    1.4006217   -4.4378229   -2.0053318   -5.8384446        15625    2.0398405    2.0795581    2.1856183   -0.1260793  0.065626652 -0.029637412            0           25            0           25            0           25 
  110000   0.94294877    2.0286215   -5.8558904    1.4143184    -4.441572   -2.0936304   -5.8558904        15625    2.0077932    1.9632712    2.1148002   -0.0054579  0.038412276  0.013242202            0           25            0           25            0           25 
  111000    0.9301471    2.1062027   -5.8365984    1.3951173   -4.4414811   -2.0037465   -5.8365984        15625    2.1420017    2.0833087    2.0932977  0.017187393 0.0011534638  0.041678244            0           25            0           25            0           25 
  112000   0.92888045    2.1198519   -5.8347505    1.3932175    -4.441533   -1.9880008   -5.8347505        15625    2.1048297    2.1391112    2.1156146 -0.0069977102  0.035426496 -0.014915131            0           25            0           25            0           25 
  113000   0.93435444     2.092088   -5.8436556    1.4014278   -4.4422277   -2.0208296   -5.8436556        15625    2.1207097    2.0178676    2.1376867 0.0043504636 -0.0084519713  0.030234499            0           25            0           25            0           25 
  114000   0.94159399    2.0345168   -5.8545346    1.4122864   -4.4422482   -2.0874834   -5.8545346        15625     2.012512    2.0245071    2.0665314  0.029292355  0.052011581   0.11067961            0           25            0           25            0           25 
  115000   0.93237941    2.0989177   -5.8407075    1.3984655   -4.4422419    -2.012939   -5.8407075        15625    2.1493492    2.1273312    2.0200728  -0.02243731 -0.042266749  0.076164393            0           25            0           25            0           25 
  116000   0.92628737    2.0451402   -5.8503328    1.3893281   -4.4610046   -2.0939442   -5.8503328        15625    2.0938545    1.9667397    2.0748265  0.027083065  0.025237238 -0.036796836            0           25            0           25            0           25 
  117000   0.92668202    2.1208282   -5.8336321    1.3899201    -4.443712   -1.9890498   -5.8336321        15625    2.1271803     2.076438    2.1588662 -0.014671155 -0.0040319167   0.10714226            0           25            0           25            0           25 
  118000   0.92504234    2.0326284   -5.8485343    1.3874607   -4.4610735   -2.1084944   -5.8485343        15625    2.0032327    2.1047552    1.9898972  0.061992328  -0.03275378  0.012030931            0           25            0           25            0           25 
  119000   0.92687886    2.1276051   -5.8343967    1.3902153   -4.4441814   -1.9816755   -5.8343967        15625    2.1081346    2.2001171    2.0745637  0.056844965  0.076831221  0.033185906            0           25            0           25            0           25 
  120000   0.93028757    2.0726744   -5.8427867     1.395328   -4.4474587     -2.04853   -5.8427867        15625    2.1050915    1.9839053    2.1290264  0.014910388 -0.0016000472  0.013313487            0           25            0           25            0           25 
  121000   0.93572946    2.0582481   -5.8510276    1.4034902   -4.4475374   -2.0653058   -5.8510276        15625    1.9539853    2.0900146    2.1307445 -0.0020896976 -0.027028939  0.017433265            0           25            0           25            0           25 
  122000   0.92685053    2.1091981   -5.8377228    1.3901728     -4.44755   -2.0063486   -5.8377228        15625    2.0717232    2.1313063    2.1245648 0.0037329319  0.039669899  0.033177237            0           25            0           25            0           25 
  123000   0.92411459    2.0684338   -5.8487221    1.3860692   -4.4626529   -2.0686322   -5.8487221        15625    2.0558119    2.0630173    2.0864723  -0.00517209 -0.025972424 -0.013116516            0           25            0           25            0           25 
  124000   0.92362862    2.0618104   -5.8479935    1.3853403   -4.4626532   -2.0762986   -5.8479935        15625    2.0875152    2.0451132    2.0528027 0.0050393996 -0.059903881  -0.10975413            0           25            0           25            0           25 
  125000   0.92150853    2.0646265   -5.8448311    1.3821604   -4.4626707   -2.0730567   -5.8448311        15625    1.9881906     2.165843    2.0398459  0.007195218  0.054567097 0.0090185115            0           25            0           25            0           25 
  126000   0.92831473    2.0328482   -5.8550186    1.3923689   -4.4626497    -2.109816   -5.8550186        15625    2.0675075     2.006491    2.0245462  0.021337238  0.013367615 -0.039007227            0           25            0           25            0           25 
  127000   0.92567392     2.054204   -5.8510712     1.388408   -4.4626632   -2.0851123   -5.8510712        15625    2.0315102     2.060748    2.0703536  0.074516259  -0.01929122  0.050366395            0           25            0           25            0           25 
  128000   0.91887943    2.0706866   -5.8408708    1.3782171   -4.4626537   -2.0660258   -5.8408708        15625    2.0678048    2.0376409     2.106614 -0.055002734 0.00026142348 -0.018231832            0           25            0           25            0           25 
  129000   0.92540707     2.051633   -5.8507227    1.3880078   -4.4627149   -2.0881397   -5.8507227        15625    2.0962314    2.0115282    2.0471393  0.049632567  0.056668016  0.055629468            0           25            0           25            0           25 
  130000   0.92086689    2.0602629   -5.8438518     1.381198   -4.4626538   -2.0780903   -5.8438518        15625    1.9055974    2.0953741    2.1798172  0.078519417  0.045078846 0.00031241077            0           25            0           25            0           25 
  131000   0.92937821    2.0143916   -5.8566494     1.393964   -4.4626853   -2.1312135   -5.8566494        15625     2.024943    1.9434094    2.0748225 -0.030526103 -0.057033095 -0.0064000866            0           25            0           25            0           25 
  132000   0.93177513    1.9206562   -5.8758371    1.3975592   -4.4782779   -2.2552963   -5.8758371        15625    1.9636022    1.9436681    1.8546982  0.041353733  0.024800046 -0.0074971444            0           25            0           25            0           25 
  133000   0.91873515    2.0131214   -5.8562668    1.3780006   -4.4782661   -2.1482645   -5.8562668        15625    2.0249154    1.9353599    2.0790889 -0.020571502  0.011483593 -0.013025401            0           25            0           25            0           25 
  134000   0.92792031    2.0104983   -5.8605395    1.3917774   -4.4687621   -2.1417965   -5.8605395        15625    2.0464064    2.0186703    1.9664183 -0.021501968 -0.033529714 -0.049575422            0           25            0           25            0           25 
  135000   0.92410711    2.0799203   -5.8394269     1.386058   -4.4533689   -2.0460538   -5.8394269        15625    2.0826758    2.1196637    2.0374212 -0.0045819159  0.049188451 -0.012483386            0           25            0           25            0           25 
  136000   0.91913386    1.9946434   -5.8596626    1.3785987   -4.4810639   -2.1724488   -5.8596626        15625     1.946969    2.0144571    2.0225042 -0.0089198933  0.037090343 0.0070357497            0           25            0           25            0           25 
  137000   0.92052673     1.994833   -5.8617469    1.3806878    -4.481059   -2.1722245   -5.8617469        15625    1.9865185    2.0282071    1.9697735 -0.040744463   -0.0269516 -0.011346049            0           25            0           25            0           25 
  138000     0.911451    1.9686184   -5.8642756    1.3670752   -4.4972004   -2.2187069   -5.8642756        15625     1.996132    1.9691428    1.9405804 0.0029385206  -0.06294377  -0.10469205            0           25            0           25            0           25 
  139000   0.91924895     1.995256   -5.8599535    1.3787713   -4.4811822   -2.1718581   -5.8599535        15625    2.0382773    1.8730941    2.0743968 -0.0012007692 -0.0042616572  0.052195874            0           25            0           25            0           25 
  140000   0.92468551    1.9444143   -5.8680364    1.3869255   -4.4811109   -2.2306313   -5.8680364        15625    1.9342694    1.9274076     1.971566 -0.0084672015  0.021230438 -0.039787776            0           25            0           25            0           25 
  141000   0.91808698    1.9072713   -5.8756249    1.3770285   -4.4985965   -2.2911065   -5.8756249        15625    1.9014946    1.9088151    1.9115043 -0.054956924 0.0076590676 -0.013607943            0           25            0           25            0           25 
  142000   0.92107185    1.9710354   -5.8645405    1.3815054   -4.4830351   -2.2017441   -5.8645405        15625    1.9999667    1.9284111    1.9847284  0.018883687  0.031296446  0.028910675            0           25            0           25            0           25 
  143000    0.9195595    1.9732068   -5.8623028    1.3792371   -4.4830657   -2.1992616   -5.8623028        15625    1.9943101    1.9677535    1.9575567  0.014790711  -0.01415599 -0.056191261            0           25            0           25            0           25 
  144000   0.92474376    1.9574588   -5.8700982    1.3870129   -4.4830853    -2.217508   -5.8700982        15625    1.9303887    1.9925002    1.9494873  0.020267594 -0.023702842  0.036717131            0           25            0           25            0           25 
  145000    0.9176055    1.9832111   -5.8593112    1.3763063   -4.4830049   -2.1876217   -5.8593112        15625    1.8826835    2.0987054    1.9682443 -0.052721499 -0.042338958 0.0077742433            0           25            0           25            0           25 
  146000   0.91933869    1.9901442   -5.8619558    1.3789059   -4.4830499   -2.1796423   -5.8619558        15625    2.0697078    1.9461651    1.9545597 -0.021440998 -0.014353456  0.062456742            0           25            0           25            0           25 
  147000   0.91316731    1.9343416   -5.8677586    1.3696495   -4.4981091   -2.2592878   -5.8677586        15625    1.9873265    1.9477748    1.8679234  0.059083634 0.0028933388 -0.013842339            0           25            0           25            0           25 
  148000    0.9085016    1.9708147     -5.86085    1.3626514   -4.4981986    -2.217163     -5.86085        15625    1.9790947    2.0095886    1.9237609 -0.069555307 -0.035762599 -0.031394196            0           25            0           25            0           25 
  149000   0.91286396    1.9522852   -5.8673772    1.3691945   -4.4981827   -2.2385933   -5.8673772        15625     1.949171    1.9155114    1.9921733  0.010412451   0.10583448 0.0036106398            0           25            0           25            0           25 
  150000   0.90975923    1.9790011   -5.8627094    1.3645378   -4.4981716   -2.2076611   -5.8627094        15625     1.984673    2.0148375    1.9374928  0.035257595 -0.075622693  0.026478109            0           25            0           25            0           25 
  151000   0.91339548    1.9505329   -5.8681549    1.3699917   -4.4981632    -2.240602   -5.8681549        15625    1.9092935    1.9398738    2.0024314  0.046527556 -0.0034520288  0.055578785            0           25            0           25            0           25 
  152000   0.91566335    1.9505714   -5.8716346    1.3733933   -4.4982413   -2.2406355   -5.8716346        15625    1.9014113    1.9391136    2.0111893 -0.010370858 -0.0042505778 -0.032135822            0           25            0           25            0           25 
  153000   0.90929695    1.9711064   -5.8619801    1.3638444   -4.4981357   -2.2167625   -5.8619801        15625    1.9639715     1.971561    1.9777868 0.0039637838  0.026975572 -0.015701977            0           25            0           25            0           25 
  154000   0.91627763    1.9238314   -5.8724966    1.3743146    -4.498182   -2.2715252   -5.8724966        15625    1.8626023    1.9498576    1.9590344 -0.014149821 -0.043548225  0.021527133            0           25            0           25            0           25 
  155000   0.91013455    1.8974535   -5.8802614    1.3651007   -4.5151607    -2.319034   -5.8802614        15625    1.9507691    1.8874385     1.854153  0.014133639  -0.04368255  0.032827357            0           25            0           25            0           25 
  156000   0.90715587    1.9186729   -5.8757234     1.360633   -4.5150904   -2.2944042   -5.8757234        15625    1.9828853    1.9114611    1.8616722 -0.054616772  0.074313555  0.058776857            0           25            0           25            0           25 
  157000   0.90922059    1.8898458    -5.878771    1.3637299   -4.5150412   -2.3277196    -5.878771        15625    1.8718227      1.90225    1.8954647 -0.052844509 -0.015911558 -0.067990469            0           25            0           25            0           25 
  158000   0.90268452    1.9387778    -5.869043    1.3539265   -4.5151165   -2.2711608    -5.869043        15625     1.864096    1.9210696    2.0311677  0.034699743  0.061262901  0.015110889            0           25            0           25            0           25 
  159000   0.90928378    1.9014509    -5.876631    1.3638246   -4.5128063    -2.312053    -5.876631        15625     1.891774    1.8926042    1.9199744 -0.0076798146  0.036750575  0.013754794            0           25            0           25            0           25 
  160000   0.90851694    1.9773846   -5.8579778    1.3626745   -4.4953033   -2.2066637   -5.8579778        15625    1.9891345     1.957346    1.9856732  0.029348901   0.04798044 -0.0050541082            0           25            0           25            0           25 
  161000   0.90055537    1.9446229   -5.8677468     1.350733   -4.5170138   -2.2662928   -5.8677468        15625    1.8874854    1.9007535    2.0456298  0.045676369 -0.0021542063  -0.05349899            0           25            0           25            0           25 
  162000   0.90729015    1.9075532   -5.8779252    1.3608344   -4.5170908   -2.3092746   -5.8779252        15625    1.8971337    1.8350941    1.9904318  0.057335416 -0.022462089 -0.023290812            0           25            0           25            0           25 
  163000   0.90656333    1.9008785   -5.8768004    1.3597443   -4.5170562   -2.3169653   -5.8768004        15625    1.9717665    1.8601086    1.8707602 -0.0043902913  0.005597543 -0.022332926            0           25            0           25            0           25 
  164000   0.91279755    1.8590905   -5.8861517    1.3690949   -4.5170568   -2.3653316   -5.8861517        15625    1.9192115    1.8286362    1.8294239  -0.10960626  0.016863085   0.08031734            0           25            0           25            0           25 
  165000   0.90895447    1.9031425   -5.8757751    1.3633307   -4.5124444   -2.3097331   -5.8757751        15625    1.8680741    1.9010733    1.9402801  0.012066457 -0.033705923 -0.048953046            0           25            0           25            0           25 
  166000   0.90748618    1.9168547   -5.8734907    1.3611284   -4.5123623   -2.2937805   -5.8734907        15625    1.7859112    2.0537003    1.9109524 -0.022989088 -0.072760661  0.018127663            0           25            0           25            0           25 
  167000   0.90817227     1.908396   -5.8746207    1.3621575   -4.5124632   -2.3036715   -5.8746207        15625     1.956544    1.8488052    1.9198389 0.0019915703  0.021000203  0.053250758            0           25            0           25            0           25 
  168000    0.8929891    1.9178309   -5.8707946    1.3393844   -4.5314102   -2.3116985   -5.8707946        15625    1.9143629    1.8717997    1.9673301 -0.029966527  -0.04645895  0.028353183            0           25            0           25            0           25 
  169000   0.89829787    1.8809701   -5.8788012     1.347347   -4.5314542   -2.3544055   -5.8788012        15625    1.9267015    1.9039727    1.8122361 -0.050389681 -0.028269191 -0.021418869            0           25            0           25            0           25 
  170000   0.90166099    1.8527022   -5.8838481    1.3523913   -4.5314568   -2.3871255   -5.8838481        15625    1.8132492    1.8440948    1.9007626 -0.063386758  0.064579163  0.085321978            0           25            0           25            0           25 
  171000   0.90236864    1.8481294   -5.8849185    1.3534527   -4.5314658   -2.3924271   -5.8849185        15625    1.8588287    1.8401208    1.8454386 -0.0021913535 0.0033809781  0.033334553            0           25            0           25            0           25 
  172000   0.89619717    1.9029931   -5.8756061    1.3441962   -4.5314099   -2.3288716   -5.8756061        15625    1.8339247    1.8954162    1.9796385  0.098046802 -0.0083327508 -0.021485774            0           25            0           25            0           25 
  173000   0.90020238    1.8842355   -5.8837579    1.3502036   -4.5335543   -2.3527262   -5.8837579        15625    1.9532296    1.8966441    1.8028327 -0.0095067446 -0.041785005 -0.0018856899            0           25            0           25            0           25 
  174000   0.90481914     1.832641   -5.8907303    1.3571282   -4.5336021   -2.4124898   -5.8907303        15625    1.8443219    1.8200756    1.8335255  0.023946565  -0.05213108  0.047279084            0           25            0           25            0           25 
  175000   0.90160721    1.8655431   -5.8859465    1.3523106   -4.5336359   -2.3744425   -5.8859465        15625    1.8981016    1.8265218    1.8720059 -0.00053506896  0.044867414 -0.079291301            0           25            0           25            0           25 
  176000   0.90139587    1.8325559   -5.8855307    1.3519937   -4.5335371   -2.4125233   -5.8855307        15625    1.8397633    1.9331073     1.724797 -0.048741227 -0.0082618629 -0.052710549            0           25            0           25            0           25 
  177000   0.90130769      1.86549    -5.885455    1.3518614   -4.5335937   -2.3744618    -5.885455        15625    1.8658086    1.8912154    1.8394458  0.045403252  0.021330383  0.045842192            0           25            0           25            0           25 
  178000   0.90384706    1.8441823   -5.8892331    1.3556702   -4.5335629   -2.3990927   -5.8892331        15625    1.7675665    1.8937986    1.8711818 -0.014457763 0.00027829052  0.010385601            0           25            0           25            0           25 
  179000   0.89587593    1.8378204   -5.8892844    1.3437144     -4.54557   -2.4184631   -5.8892844        15625    1.8077292     1.852082      1.85365 -0.0022993911  0.039794344  0.037414927            0           25            0           25            0           25 
  180000   0.89126917    1.8787538   -5.8823532    1.3368047   -4.5455485   -2.3710649   -5.8823532        15625    1.7861188    2.0122993    1.8378433 -0.026030944 0.0047199787  0.046298608            0           25            0           25            0           25 
  181000   0.89485541    1.8231251    -5.887766    1.3421837   -4.5455823   -2.4354837    -5.887766        15625    1.8327341    1.7948993    1.8417421 -0.025408278 -0.011294596  0.011505131            0           25            0           25            0           25 
  182000    0.8920744    1.8596862   -5.8836112    1.3380125   -4.5455987   -2.3931841   -5.8836112        15625    1.8647391    1.9008755    1.8134442  0.035436952 -0.034256611  0.039554053            0           25            0           25            0           25 
  183000   0.88573153    1.7716475   -5.8979053    1.3284989   -4.5694064   -2.5188885   -5.8979053        15625    1.7859788    1.7622767     1.766687  -0.01072297  0.042471701 -0.013778142            0           25            0           25            0           25 
  184000   0.89395884    1.8414024   -5.8889961    1.3408389   -4.5481572   -2.4169043   -5.8889961        15625     1.787501    1.8595014    1.8772049 -0.024066697 -0.023584021 -0.011327269            0           25            0           25            0           25 
  185000   0.89452674    1.8414695   -5.8899286    1.3416907   -4.5482379   -2.4169075   -5.8899286        15625    1.7932659    1.8811078    1.8500347   -0.0182699  0.046117581 -0.070727107            0           25            0           25            0           25 
  186000    0.8910145    1.8464877   -5.8846261    1.3364228   -4.5482033   -2.4110648   -5.8846261        15625    1.9452653    1.8277333    1.7664645  0.013756759  -0.10558826 -0.012648696            0           25            0           25            0           25 
  187000   0.89358099     1.852076   -5.8874145    1.3402722   -4.5471423   -2.4035358   -5.8874145        15625    1.9031219    1.8303911     1.822715  0.022356431  0.033919379  0.033351414            0           25            0           25            0           25 
  188000   0.89823506    1.8157556   -5.8944415    1.3472528   -4.5471887   -2.4456197   -5.8944415        15625    1.8288691    1.8974962    1.7209016  0.043385067 -0.00071277759  0.057325302            0           25            0           25            0           25 
  189000   0.88046943    1.8290337   -5.8860694    1.3206063   -4.5654631    -2.448526   -5.8860694        15625    1.8297173    1.7899133    1.8674705 -0.023392554  0.011466905  0.012030604            0           25            0           25            0           25 
  190000   0.88397029    1.8068942   -5.8913543    1.3258572   -4.5654971   -2.4741843   -5.8913543        15625    1.8272393    1.8482443     1.745199 0.00065588358 -0.044281786 -0.0035135991            0           25            0           25            0           25 
  191000   0.89606625    1.8075704    -5.894259    1.3439998   -4.5502592   -2.4581637    -5.894259        15625     1.837961      1.72283    1.8619203  0.053217572 -0.0067045062 -0.042818842            0           25            0           25            0           25 
  192000   0.88373986    1.8051594   -5.8949292    1.3255116   -4.5694176   -2.4801127   -5.8949292        15625    1.8780278    1.7871889    1.7502615  0.038928449   0.10605048  0.014620909            0           25            0           25            0           25 
  193000   0.89018901    1.7556597   -5.9045438    1.3351846   -4.5693592   -2.5373457   -5.9045438        15625    1.7437774     1.768116    1.7550857 -0.034337755  0.066520297 -0.037868524            0           25            0           25            0           25 
  194000    0.8849569     1.793666   -5.8966813     1.327337   -4.5693443    -2.493342   -5.8966813        15625    1.7767244    1.8665175     1.737756  0.012204082 -0.030448863  0.023453479            0           25            0           25            0           25 
  195000   0.88438458    1.7987454   -5.8958438    1.3264786   -4.5693652   -2.4874839   -5.8958438        15625    1.8631626    1.6905065    1.8425673 -0.026944123 0.0066052334   0.06212476            0           25            0           25            0           25 
  196000   0.89208973    1.7353271   -5.9073772    1.3380355   -4.5693417   -2.5608613   -5.9073772        15625    1.7363006    1.7283714    1.7413092   0.13438011      0.11949 0.0020117742            0           25            0           25            0           25 
  197000   0.88473204    1.8031749   -5.8963613    1.3269998   -4.5693615   -2.4823535   -5.8963613        15625     1.911537    1.8156494    1.6823382 0.0042697252 -0.0038569334 -0.071832704            0           25            0           25            0           25 
  198000   0.88438722    1.8065774   -5.8958467    1.3264826   -4.5693642    -2.478418   -5.8958467        15625    1.8117051    1.8852275    1.7227997  0.021719148  0.040207361 -0.014058768            0           25            0           25            0           25 
  199000   0.87648331    1.7446291   -5.9003055    1.3146276   -4.5856779   -2.5664312   -5.9003055        15625    1.8068375    1.7742924    1.6527574 -0.050452058 0.0024099587 -0.040170561            0           25            0           25            0           25 
  200000   0.89302599    1.6528523   -5.9250918    1.3394398    -4.585652   -2.6726285   -5.9250918        15625    1.6338195    1.6579241    1.6668134 -0.010273833 -0.019202929 -0.050907848            0           25            0           25            0           25 
  201000   0.87883085    1.7396889    -5.903822    1.3181486   -4.5856734   -2.5721445    -5.903822        15625     1.767629    1.7753956    1.6760421 -0.041543127 -0.020687118 -0.038144236            0           25            0           25            0           25 
  202000   0.87574227    1.7709592   -5.8991878    1.3135161   -4.5856717   -2.5359504   -5.8991878        15625    1.8170687    1.8240447    1.6717643 -0.0075529276  0.029344396 -0.031766931            0           25            0           25            0           25 
  203000   0.87615449     1.745118   -5.8997383    1.3141344   -4.5856039   -2.5657914   -5.8997383        15625    1.7477406    1.7379219    1.7496915 -0.015646525  0.024740076   0.03236936            0           25            0           25            0           25 
  204000   0.87822982    1.7765544   -5.9029123    1.3172472   -4.5856652    -2.529468   -5.9029123        15625     1.732655    1.7245157    1.8724923  0.013058533  0.036566552  -0.02642789            0           25            0           25            0           25 
  205000   0.87863056    1.7687481   -5.9035375    1.3178482   -4.5856893   -2.5385272   -5.9035375        15625     1.779895     1.762402    1.7639471  0.083452524 -0.0062468298  0.022763259            0           25            0           25            0           25 
  206000   0.87757257    1.7502435   -5.9019234    1.3162613    -4.585662   -2.5599172   -5.9019234        15625    1.6789391    1.8164658    1.7553256 -0.070052764 -0.076382341 -0.007296366            0           25            0           25            0           25 
  207000   0.88247135    1.7083543   -5.9092531     1.323609   -4.5856441   -2.6083823   -5.9092531        15625    1.7922954     1.634938    1.6978294  0.006010072  0.034911501 -0.0026991503            0           25            0           25            0           25 
  208000   0.88098214    1.7275726   -5.9070732    1.3213753   -4.5856979   -2.5861925   -5.9070732        15625    1.7714632    1.7338071    1.6774476  0.059125448  0.005023396  -0.02497402            0           25            0           25            0           25 
  209000   0.88550571    1.7134861   -5.9139148    1.3281602   -4.5857546   -2.6025531   -5.9139148        15625    1.6807291     1.737483    1.7222463   0.01220266  -0.02067119  0.011229667            0           25            0           25            0           25 
  210000   0.87525238     1.778355   -5.8984065    1.3127813   -4.5856252   -2.5273439   -5.8984065        15625    1.8191557    1.7139736    1.8019358  0.012023669 -0.036688523 -0.034959712            0           25            0           25            0           25 
  211000   0.87251944    1.7086598   -5.9110871    1.3086822   -4.6024048   -2.6247893   -5.9110871        15625    1.7703441    1.6062842    1.7493511 0.0062033135 -0.0010502421 -0.056257961            0           25            0           25            0           25 
  212000   0.87264209    1.7042289   -5.9112561    1.3088662   -4.6023899   -2.6299028   -5.9112561        15625    1.7113423    1.7423236    1.6590208  0.020759593 -0.019652938 -0.024202331            0           25            0           25            0           25 
  213000   0.86804888    1.7435134   -5.9043395    1.3019769   -4.6023626   -2.5844073   -5.9043395        15625    1.6765994    1.8073466    1.7465941 -0.072192268 -0.0068500072 -0.039188336            0           25            0           25            0           25 
  214000   0.87975905    1.6408877    -5.921916    1.3195408   -4.6023752   -2.7031996    -5.921916        15625    1.6769333    1.6192856    1.6264443 -0.011955782  -0.02110892  -0.03380237            0           25            0           25            0           25 
  215000   0.87438402    1.6982995   -5.9138396    1.3114789   -4.6023607   -2.6367363   -5.9138396        15625    1.7064316    1.6564906    1.7319763  0.032566015 -0.034041398 -0.047341383            0           25            0           25            0           25 
  216000   0.86637093     1.680924   -5.9174527    1.2994601   -4.6179926   -2.6724787   -5.9174527        15625    1.7135076     1.675973    1.6532912  0.047001685  0.034719807   -0.0354945            0           25            0           25            0           25 
  217000   0.87473407    1.7094761   -5.9096841    1.3120039   -4.5976802   -2.6191199   -5.9096841        15625    1.7109506    1.6060085    1.8114692 0.0014185627  0.061784271 -0.024252757            0           25            0           25            0           25 
  218000   0.86436725    1.7796474   -5.8940708    1.2964548    -4.597616   -2.5378389   -5.8940708        15625    1.6884771    1.7885624    1.8619026 -0.015729427 -0.089042591  0.055901576            0           25            0           25            0           25 
  219000    0.8796944    1.6904418   -5.9170816    1.3194439   -4.5976378   -2.6411079   -5.9170816        15625    1.7294771    1.7206259    1.6212223 -0.031192574 -0.012271315 -0.0034669446            0           25            0           25            0           25 
  220000   0.87315208    1.6523076   -5.9223765    1.3096311   -4.6127454   -2.7003523   -5.9223765        15625    1.6193715    1.7120984     1.625453 -0.0060534221  0.034163506 0.00078388246            0           25            0           25            0           25 
  221000   0.87158791    1.6590226   -5.9200414     1.307285   -4.6127564   -2.6925913   -5.9200414        15625      1.64763    1.6295185    1.6999194 -0.045420949 -0.038956779 -0.0062783175            0           25            0           25            0           25 
  222000   0.87602024     1.635025   -5.9267302     1.313933   -4.6127972   -2.7204071   -5.9267302        15625    1.6699852    1.6093668    1.6257231  0.064303095 0.0050772974  0.019016099            0           25            0           25            0           25 
  223000   0.87826633    1.7005541   -5.9144406    1.3173019   -4.5971387   -2.6289048   -5.9144406        15625    1.6196136    1.6755946     1.806454  0.028682996 -0.042615218   0.01301899            0           25            0           25            0           25 
  224000   0.87769154    1.6973542    -5.913544    1.3164398   -4.5971042    -2.632574    -5.913544        15625    1.6687195    1.6932808    1.7300622 -0.050812933 -0.011267205 0.0013466664            0           25            0           25            0           25 
  225000    0.8701037    1.6651741   -5.9175429    1.3050589   -4.6124841   -2.6851993   -5.9175429        15625    1.6196468    1.6747005     1.701175 -0.020895128  0.028037466 -0.030052096            0           25            0           25            0           25 
  226000   0.87369863    1.6524575   -5.9229334    1.3104509   -4.6124825    -2.699916   -5.9229334        15625    1.5868778    1.6480867    1.7224079  0.032719739 0.0036164734   0.08132322            0           25            0           25            0           25 
  227000   0.87139785    1.6538068   -5.9194698        1.307   -4.6124698   -2.6983416   -5.9194698        15625    1.6181076    1.6496687     1.693644 -0.005060453 -0.037859665  0.014429699            0           25            0           25            0           25 
  228000   0.85758433    1.6673033   -5.9162082    1.2862812    -4.629927   -2.7001778   -5.9162082        15625     1.638642    1.6295248    1.7337431  0.041869968  -0.01078957 -0.0067161035            0           25            0           25            0           25 
  229000     0.868094    1.5908318   -5.9320071    1.3020445   -4.6299626   -2.7887221   -5.9320071        15625    1.5484298    1.6191724    1.6048931  0.019609162 -0.024738462  0.021890096            0           25            0           25            0           25 
  230000   0.86425674    1.6239476   -5.9262511    1.2962891    -4.629962    -2.750393   -5.9262511        15625    1.6135306    1.6336788    1.6246334  0.045759458  -0.04053614  0.037791002            0           25            0           25            0           25 
  231000   0.86579874    1.6994065   -5.9106757    1.2986019   -4.6120738   -2.6451681   -5.9106757        15625    1.6066065     1.727781    1.7638322  0.027057969  0.027023115  0.015932748            0           25            0           25            0           25 
  232000   0.86521776    1.6385177   -5.9279385    1.2977305    -4.630208   -2.7337755   -5.9279385        15625     1.636907    1.6734588    1.6051875  0.055453443   0.01302315   0.04329423            0           25            0           25            0           25 
  233000   0.85898413    1.6492467   -5.9185446    1.2883807   -4.6301638   -2.7213134   -5.9185446        15625    1.5996301    1.6703993    1.6777108  0.017481237 -0.050424697 -0.010029662            0           25            0           25            0           25 
  234000   0.85946365    1.6579697   -5.9193122       1.2891   -4.6302123   -2.7112658   -5.9193122        15625    1.6064969    1.6605068    1.7069053  0.079797826  0.034050012  0.012195633            0           25            0           25            0           25 
  235000   0.86541155    1.6206111   -5.9282267    1.2980212   -4.6302055   -2.7544982   -5.9282267        15625    1.6957248    1.5859276    1.5801809  0.034747075  0.042198002  0.025970698            0           25            0           25            0           25 
  236000   0.86619999    1.6197962   -5.9281773    1.2992037   -4.6289736   -2.7542094   -5.9281773        15625    1.5715539    1.6386796    1.6491551 -0.016809985 -0.022871602 -0.0057260486            0           25            0           25            0           25 
  237000   0.86201852    1.6441131   -5.9218473     1.292932   -4.6289153   -2.7260066   -5.9218473        15625    1.6657734    1.6246325    1.6419334 -0.065974618  -0.04105999 -0.028199571            0           25            0           25            0           25 
  238000   0.86327696    1.6434377   -5.9237962    1.2948195   -4.6289767   -2.7268497   -5.9237962        15625    1.6437351    1.7419661     1.544612 -0.014967597  0.022352361 -0.014331319            0           25            0           25            0           25 
  239000   0.86010043     1.658088   -5.9190392    1.2900551   -4.6289841   -2.7099007   -5.9190392        15625    1.6968703    1.6921771    1.5852168  0.053712607  0.043707731 -0.014933968            0           25            0           25            0           25 
  240000   0.85538936    1.5972159   -5.9272621     1.282989   -4.6442731   -2.7956436   -5.9272621        15625    1.6105835    1.5943582     1.586706 -0.039864396  0.016179953 -0.052148618            0           25            0           25            0           25 
  241000   0.86230539     1.635229   -5.9210688    1.2933623   -4.6277065   -2.7350803   -5.9210688        15625    1.6691678    1.6221437    1.6143755 -0.044398813  0.018867927  -0.04859129            0           25            0           25            0           25 
  242000   0.86142761    1.6736007   -5.9197446    1.2920457   -4.6276989    -2.690661   -5.9197446        15625    1.7123883    1.6619459    1.6464679  0.040823108  -0.06007294  0.023677224            0           25            0           25            0           25 
  243000   0.85882698    1.6613251   -5.9170155     1.288145   -4.6288705   -2.7060405   -5.9170155        15625    1.5864631    1.7204384    1.6770739 -0.090128299  0.011066212 0.0083030555            0           25            0           25            0           25 
  244000   0.85059964    1.6184848   -5.9235865    1.2758049   -4.6477815   -2.7745352   -5.9235865        15625    1.5653077    1.6643647    1.6257821  0.019163837 -0.071135449  0.025514976            0           25            0           25            0           25 
  245000   0.86382018    1.5278156   -5.9434674    1.2956343   -4.6478331   -2.8795281   -5.9434674        15625    1.4672061    1.5873741    1.5288665 -0.029441945  0.062644873  0.020387257            0           25            0           25            0           25 
  246000   0.85320668    1.6174823    -5.924989    1.2797152   -4.6452738   -2.7731878    -5.924989        15625    1.6727972     1.638656    1.5409938 -0.0068537895 0.0082464267  -0.10767427            0           25            0           25            0           25 
  247000   0.85652688    1.5994284   -5.9299252    1.2846952     -4.64523   -2.7940397   -5.9299252        15625    1.6064608     1.639187    1.5526375 -0.055243442  0.037302157 -0.012855463            0           25            0           25            0           25 
  248000   0.85495061    1.6173701   -5.9275938    1.2823309   -4.6452629   -2.7733067   -5.9275938        15625    1.6465722    1.6173974    1.5881407   0.02057501 -0.0096166701 -0.019793459            0           25            0           25            0           25 
  249000   0.85671312    1.5952677   -5.9302457    1.2849745   -4.6452712   -2.7988965   -5.9302457        15625    1.7379587    1.5387226    1.5091218   -0.0353561 -0.038803752 -0.011530714            0           25            0           25            0           25 
  250000   0.85501966    1.6073816   -5.9276568    1.2824345   -4.6452223   -2.7848269   -5.9276568        15625    1.6463511    1.6265813    1.5492125 -0.038433372 -0.018893777 -0.0015663189            0           25            0           25            0           25 
  251000    0.8602602    1.5857595   -5.9356292    1.2902947   -4.6453345   -2.8099647   -5.9356292        15625    1.6659022     1.583875    1.5075012  -0.02167321   0.03589973 0.0078117941            0           25            0           25            0           25 
  252000   0.86057705    1.5621965   -5.9360147      1.29077   -4.6452447   -2.8371469   -5.9360147        15625    1.5427546    1.5674094    1.5764255   0.02859763  0.081627144  0.041970187            0           25            0           25            0           25 
  253000   0.85649421    1.6120184    -5.929944    1.2846462   -4.6452979   -2.7795359    -5.929944        15625    1.5810177    1.5924271    1.6626103 -0.031359805  0.031423173   0.12072468            0           25            0           25            0           25 
  254000   0.84373425     1.615421    -5.926679    1.2655076   -4.6611713   -2.7914711    -5.926679        15625    1.6390268    1.6208803     1.586356 -0.041373715  0.063480084 0.0040308975            0           25            0           25            0           25 
  255000   0.85808708    1.6141276   -5.9265265    1.2870353   -4.6394912    -2.771288   -5.9265265        15625    1.6344687    1.5879126    1.6200014  0.005700993 -0.060598398  0.017717774            0           25            0           25            0           25 
  256000   0.84892755    1.5957401   -5.9325995     1.273297   -4.6593025   -2.8123811   -5.9325995        15625    1.5744927    1.6060325    1.6066952  0.068326737  0.016300601  0.074473524            0           25            0           25            0           25 
  257000    0.8562491    1.5407511   -5.9436497    1.2842785   -4.6593712   -2.8760945   -5.9436497        15625    1.5232857    1.5679216     1.531046  0.051759134 0.0049949998 -0.044768789            0           25            0           25            0           25 
  258000   0.85363089    1.5593321   -5.9396354    1.2803515   -4.6592839   -2.8545014   -5.9396354        15625    1.5341585    1.5543949    1.5894429 0.0066284556 -0.010881085 -0.012985903            0           25            0           25            0           25 
  259000   0.85647054    1.5373925   -5.9439855    1.2846107   -4.6593749   -2.8799854   -5.9439855        15625    1.5421432    1.5125148    1.5575195 -0.024601094  0.016796637 -0.021022785            0           25            0           25            0           25 
  260000   0.85151227    1.5554249   -5.9364923    1.2771738   -4.6593185   -2.8590583   -5.9364923        15625    1.5662105    1.5027366    1.5973274  0.038232467  -0.03407666 -0.0043830708            0           25            0           25            0           25 
  261000   0.85171118    1.4845137   -5.9524886    1.2774721   -4.6750165   -2.9568294   -5.9524886        15625     1.538403    1.3788999    1.5362381  0.081703301  0.011554569 -0.021916645            0           25            0           25            0           25 
  262000   0.84261204    1.5543646   -5.9388349    1.2638244   -4.6750104   -2.8759773   -5.9388349        15625    1.4965299    1.6644765    1.5020874 -0.035344026 0.0049630033  -0.01974605            0           25            0           25            0           25 
  263000    0.8508271    1.5720852    -5.935802    1.2761461   -4.6596559   -2.8401129    -5.935802        15625    1.4879259    1.6007792    1.6275503 -0.058585747   0.01246914 -0.035171251            0           25            0           25            0           25 
  264000   0.85037816    1.5809845   -5.9351779    1.2754728   -4.6597051    -2.829862   -5.9351779        15625    1.5428514    1.6276821      1.57242   -0.0246421   0.03201154 -0.015621741            0           25            0           25            0           25 
  265000   0.85062352    1.5723846   -5.9355049    1.2758408   -4.6596641   -2.8397745   -5.9355049        15625    1.6395795    1.4837827    1.5937917 0.0088673537 -0.027736626 -0.032829431            0           25            0           25            0           25 
  266000   0.84546443    1.6219765   -5.9239353    1.2681027   -4.6558326   -2.7785449   -5.9239353        15625    1.6163856    1.6473478    1.6021962 0.0053803023 -0.056685226  0.039088128            0           25            0           25            0           25 
  267000   0.84556872    1.4804756   -5.9497063    1.2682591   -4.6814471   -2.9679337   -5.9497063        15625    1.4552942    1.5682675    1.4178651  0.040397087   0.02052499  0.022655651            0           25            0           25            0           25 
  268000    0.8428999    1.5020887   -5.9456655    1.2642562   -4.6814093   -2.9428807   -5.9456655        15625    1.5184166    1.4870793    1.5007703  0.038266041  0.019801327 -0.013056273            0           25            0           25            0           25 
  269000    0.8389067    1.5275543   -5.9396923    1.2582668   -4.6814254   -2.9134227   -5.9396923        15625     1.610081    1.4576029    1.5149791  0.022925426 -0.048322992 0.0044114266            0           25            0           25            0           25 
  270000   0.83815766    1.5543022   -5.9386212    1.2571434   -4.6814778    -2.882517   -5.9386212        15625    1.6532362    1.4960452     1.513625 -0.017568708   -0.0669436 -0.020028209            0           25            0           25            0           25 
  271000   0.84693009    1.5150529   -5.9518214     1.270301   -4.6815204    -2.927987   -5.9518214        15625    1.5639272    1.5292007    1.4520308 -0.037725606 0.0019816037 0.0023600196            0           25            0           25            0           25 
  272000   0.84502346    1.4968762   -5.9488885    1.2674413   -4.6814472   -2.9489516   -5.9488885        15625    1.5655425    1.4430958    1.4819901   -0.0241538  0.026263227  0.016446989            0           25            0           25            0           25 
  273000    0.8406829    1.5198651    -5.942387    1.2609309   -4.6814561   -2.9223529    -5.942387        15625    1.5162827    1.5415398    1.5017728 -0.0085420186  0.068924449  0.080348121            0           25            0           25            0           25 
  274000   0.83428077    1.4873543   -5.9506643    1.2513285   -4.6993358   -2.9778609   -5.9506643        15625    1.4998946    1.4422446    1.5199237 -0.066833365 -0.021282785 -0.020644765            0           25            0           25            0           25 
  275000   0.83901598    1.5245692   -5.9416553    1.2584307   -4.6832246   -2.9186769   -5.9416553        15625    1.4930467    1.5110992    1.5695618 -0.025845231   0.05374599 -0.0052251936            0           25            0           25            0           25 
  276000   0.83895335    1.5131991   -5.9415811    1.2583368   -4.6832443   -2.9318564   -5.9415811        15625    1.5636286    1.4734649    1.5025038  0.011533504 -0.027268553  0.046535083            0           25            0           25            0           25 
  277000   0.84443966    1.4842032   -5.9498628    1.2665657   -4.6832971   -2.9654694   -5.9498628        15625    1.5159471    1.4974708    1.4391917 0.0095742616 -0.052941907  0.076442608            0           25            0           25            0           25 
  278000   0.83299561    1.4827028   -5.9485671    1.2494009   -4.6991662    -2.983075   -5.9485671        15625    1.5488591    1.4435243     1.455725 -0.070515135 -0.025084611  0.037313732            0           25            0           25            0           25 
  279000   0.83791168    1.3966775   -5.9719103    1.2567744   -4.7151359    -3.098611   -5.9719103        15625    1.4173151    1.3640189    1.4086987 -0.014896181 -0.046163434 -0.040739361            0           25            0           25            0           25 
  280000   0.82865403    1.5129906   -5.9425713     1.242889   -4.6996823   -2.9485357   -5.9425713        15625    1.5217884    1.4691345    1.5480491 -0.019109764 -0.050188655  -0.05809662            0           25            0           25            0           25 
  281000   0.83831853    1.4529095   -5.9571506    1.2573847   -4.6997659   -3.0181578   -5.9571506        15625    1.4134404     1.483524     1.461764 -0.036813637  0.019712781  0.068847502            0           25            0           25            0           25 
  282000   0.83664698    1.4611122   -5.9553825    1.2548775    -4.700505   -3.0094029   -5.9553825        15625     1.367344    1.5060832    1.5099096 -0.0032254467  0.043999976 -0.0085638545            0           25            0           25            0           25 
  283000   0.83910841    1.4238542   -5.9590361    1.2585694   -4.7004668   -3.0524873   -5.9590361        15625    1.3992606    1.4703327    1.4019694 0.0015307867  0.057668044  0.011118974            0           25            0           25            0           25 
  284000   0.83036274    1.5004536   -5.9459016    1.2454519   -4.7004497   -2.9638136   -5.9459016        15625    1.4609652    1.4959323    1.5444632 0.0023968306 0.0082820437  0.041408597            0           25            0           25            0           25 
  285000   0.83840084    1.4482067   -5.9579911    1.2575081    -4.700483   -3.0243178   -5.9579911        15625    1.5059385    1.5000338    1.3386478  0.018132341 0.0030747862   0.03734458            0           25            0           25            0           25 
  286000   0.83384482    1.4112562   -5.9665002    1.2506746   -4.7158256   -3.0824272   -5.9665002        15625    1.3544851    1.4177721    1.4615115 -0.035895526 -0.056467963 -0.0055908603            0           25            0           25            0           25 
  287000   0.82586241    1.4489642    -5.954523    1.2387019   -4.7158212   -3.0387792    -5.954523        15625    1.4390743    1.4002847    1.5075336 -0.028779324   0.05450954 -0.070739657            0           25            0           25            0           25 
  288000   0.82755063     1.431529     -5.95705     1.241234    -4.715816   -3.0589538     -5.95705        15625    1.4781088    1.3960567    1.4204214 -0.010260266 0.0059354004 0.0045154768            0           25            0           25            0           25 
  289000    0.8279307    1.4340059   -5.9576349    1.2418041   -4.7158308   -3.0561018   -5.9576349        15625    1.4323064    1.4474726    1.4222387   0.09266698 -0.033809969 0.0049327197            0           25            0           25            0           25 
  290000    0.8350168    1.4934458   -5.9498367    1.2524324   -4.6974043    -2.968879   -5.9498367        15625    1.5735608    1.3949076    1.5118691  0.087188303 -0.0027095143  0.032398585            0           25            0           25            0           25 
  291000    0.8264478    1.4541592   -5.9552289    1.2395799    -4.715649   -3.0325944   -5.9552289        15625    1.4769103    1.4239621    1.4616051  0.040186469 -0.0072354573 -0.035486731            0           25            0           25            0           25 
  292000    0.8378255     1.382844   -5.9723258    1.2566452   -4.7156807   -3.1151668   -5.9723258        15625    1.3222591    1.4660768    1.3601961  0.024172544 -0.029917695 -0.015466459            0           25            0           25            0           25 
  293000   0.83392099    1.4014985   -5.9664132    1.2507888   -4.7156244   -3.0935196   -5.9664132        15625    1.4494771    1.3133158    1.4417027 0.0013383899 -0.095007128 -0.060525893            0           25            0           25            0           25 
  294000   0.83020974    1.4396152   -5.9609363    1.2452224   -4.7157139   -3.0494926   -5.9609363        15625    1.4395516    1.4230457    1.4562484 -0.079013315  0.036325098 0.0039446705            0           25            0           25            0           25 
  295000   0.82665463    1.4533868   -5.9555597    1.2398901   -4.7156696    -3.033509   -5.9555597        15625    1.4537771    1.4570884    1.4492948 0.00036169594 0.0099959302 -0.0067072685            0           25            0           25            0           25 
  296000   0.82923662    1.4339192   -5.9594023    1.2437628   -4.7156395   -3.0560107   -5.9594023        15625    1.4305203    1.5136592    1.3575782  0.011507655   -0.1144008 -0.037784064            0           25            0           25            0           25 
  297000   0.83246774    1.4029981   -5.9642916    1.2486091   -4.7156825   -3.0918421   -5.9642916        15625    1.4231059    1.4054832    1.3804051  0.030672466   0.04665421 -0.032195079            0           25            0           25            0           25 
  298000   0.83256557     1.430585   -5.9644899    1.2487558    -4.715734   -3.0599643   -5.9644899        15625     1.425816    1.3929793    1.4729597 -0.021909774 -0.081586532 -0.012488578            0           25            0           25            0           25 
  299000   0.81912568    1.4088358   -5.9633653    1.2285975   -4.7347678   -3.1041709   -5.9633653        15625    1.3359307    1.3576054    1.5329712 0.0055990635 -0.075435773 0.0058399507            0           25            0           25            0           25 
  300000   0.82571109    1.3690411   -5.9705579    1.2384749    -4.732083   -3.1475447   -5.9705579        15625    1.3874654    1.3099109     1.409747 -0.049730436 -0.036101019  0.005599777            0           25            0           25            0           25 
  301000   0.82576845    1.3583366   -5.9706425    1.2385609   -4.7320815   -3.1599327   -5.9706425        15625    1.3547844    1.3926535    1.3275718 -0.017855809 -0.0041525271 -0.014943356            0           25            0           25            0           25 
  302000   0.83146036    1.3360786    -5.979197    1.2470982   -4.7320988   -3.1857115    -5.979197        15625    1.3103422    1.3349262    1.3629674 -0.0050148133 -0.0021913161 -0.039577853            0           25            0           25            0           25 
  303000   0.81935288    1.4137865   -5.9610054    1.2289383   -4.7320671   -3.0957402   -5.9610054        15625    1.4074697    1.4176174    1.4162722 -0.018448883  0.041885037 -0.021133422            0           25            0           25            0           25 
  304000   0.82019789    1.4203813   -5.9622516    1.2302057   -4.7320459    -3.088086   -5.9622516        15625    1.3255975    1.4652584     1.470288 0.0029672293  -0.05275087   0.04605779            0           25            0           25            0           25 
  305000   0.83159638    1.3402563   -5.9794066    1.2473022   -4.7321044   -3.1808819   -5.9794066        15625    1.4002311    1.3066302    1.3139075  0.044971659  0.014465918 -0.012294057            0           25            0           25            0           25 
  306000   0.82798929    1.3506437   -5.9740056    1.2418919   -4.7321137   -3.1688687   -5.9740056        15625    1.3738386    1.2820118    1.3960807 -0.037764319 -0.0025323473 -0.092849932            0           25            0           25            0           25 
  307000   0.82256156     1.393143   -5.9658263    1.2337509   -4.7320754   -3.1196414   -5.9658263        15625    1.4193091    1.3888704    1.3712495  0.043207604 -0.0068317339  0.031173871            0           25            0           25            0           25 
  308000   0.81157636    1.3906238     -5.96453    1.2172744   -4.7472557   -3.1377373     -5.96453        15625    1.3913723     1.330707    1.4497922 0.0045625431 -0.046133879 0.0056803794            0           25            0           25            0           25 
  309000   0.81769291     1.346767   -5.9736538    1.2264485   -4.7472053   -3.1884471   -5.9736538        15625    1.4079972    1.3151645    1.3171395 -0.046475585  0.007455991  0.045229457            0           25            0           25            0           25 
  310000   0.81948629    1.3357789   -5.9763039    1.2291384   -4.7471655   -3.2011251   -5.9763039        15625    1.3462097     1.295953    1.3651742 -0.018724609 -0.026350735 0.0016827174            0           25            0           25            0           25 
  311000   0.82333838    1.3042519   -5.9820899    1.2349161   -4.7471738    -3.237623   -5.9820899        15625    1.2724175    1.3041693    1.3361688  0.010958301 -0.0029706465 -0.021873261            0           25            0           25            0           25 
  312000    0.8187783    1.3586976   -5.9752457    1.2280765   -4.7471692   -3.1746026   -5.9752457        15625    1.3568969    1.3834106    1.3357853 -0.0048445111 -0.015083581 0.0013889524            0           25            0           25            0           25 
  313000   0.81613825    1.3779273   -5.9712847    1.2241167    -4.747168   -3.1523447   -5.9712847        15625    1.3454876    1.4047039    1.3835905 -0.0033773137 -0.0099732598 -0.029421165            0           25            0           25            0           25 
  314000   0.81899076    1.3466588   -5.9755522    1.2283951   -4.7471571   -3.1885242   -5.9755522        15625    1.3468125    1.3561032    1.3370608  0.023401719  0.079495745  0.032894223            0           25            0           25            0           25 
  315000   0.81562158    1.3661263   -5.9704585    1.2233417   -4.7471168   -3.1659521   -5.9704585        15625    1.3210703    1.4263627    1.3509459  0.028799275    0.0349428  0.035981683            0           25            0           25            0           25 
  316000   0.82132374    1.3254307   -5.9785699    1.2318943   -4.7466756   -3.2126122   -5.9785699        15625    1.3597138    1.3709263    1.2456521 -0.0096218672  0.047906695  0.028070904            0           25            0           25            0           25 
  317000   0.81396133    1.3748617   -5.9675582    1.2208515   -4.7467067   -3.1554315   -5.9675582        15625    1.3541555    1.3641206     1.406309 0.00063149582 -0.021226667  0.041048132            0           25            0           25            0           25 
  318000    0.8228032    1.3055844   -5.9808245    1.2341134   -4.7467111    -3.235618   -5.9808245        15625    1.3244889    1.2622895    1.3299748 -0.059730543 -0.0025426174 -0.018798217            0           25            0           25            0           25 
  319000   0.80631455    1.3687979   -5.9716268    1.2093822   -4.7622445   -3.1779877   -5.9716268        15625    1.3801972    1.3681278    1.3580687 -0.058605885 0.0002365854  0.030395915            0           25            0           25            0           25 
  320000   0.81091388    1.3166483   -5.9785502    1.2162807   -4.7622695    -3.238371   -5.9785502        15625    1.3505425    1.3186841    1.2807184  0.022469082 -0.054331134  -0.03866142            0           25            0           25            0           25 
  321000   0.80690496    1.3502136   -5.9727978    1.2102678     -4.76253   -3.1997828   -5.9727978        15625    1.4104548     1.362554    1.2776319  0.036309809 -0.046473114 0.0070829948            0           25            0           25            0           25 
  322000   0.80760969    1.3587605   -5.9719744    1.2113248   -4.7606496   -3.1880102   -5.9719744        15625    1.3992508    1.3824325    1.2945981 -0.066125015   0.06835169 -0.031907686            0           25            0           25            0           25 
  323000   0.81890785      1.26826   -5.9889543    1.2282708   -4.7606835     -3.29279   -5.9889543        15625     1.287303    1.2301552    1.2873218 -0.024049352  0.012690748   0.02911678            0           25            0           25            0           25 
  324000   0.81412031    1.3095357   -5.9817316      1.22109   -4.7606416   -3.2449752   -5.9817316        15625    1.3123769    1.2975535    1.3186768 -0.031774998  0.022844956 -0.037505998            0           25            0           25            0           25 
  325000    0.8110096    1.3351468   -5.9771194    1.2164243   -4.7606951   -3.2153863   -5.9771194        15625    1.2942272     1.324626    1.3865871 -0.0073129565   0.01009479 -0.0066308576            0           25            0           25            0           25 
  326000   0.80416681    1.2625053   -5.9877545    1.2061609   -4.7815936   -3.3203606   -5.9877545        15625    1.2424918    1.2864245    1.2585998 -0.019772809 -0.033121041 -0.079903047            0           25            0           25            0           25 
  327000   0.80650986    1.2671362   -5.9912525    1.2096752   -4.7815773   -3.3149844   -5.9912525        15625    1.2971263    1.2460566    1.2582259 0.0054821951  0.040203092  0.030012169            0           25            0           25            0           25 
  328000   0.81463496    1.2861543   -5.9838165    1.2218619   -4.7619546   -3.2733501   -5.9838165        15625    1.2561859    1.2983508    1.3039263  0.029890954 -0.063770441 -0.0087592196            0           25            0           25            0           25 
  329000    0.8128152    1.3091965   -5.9810931    1.2191325   -4.7619606   -3.2466869   -5.9810931        15625     1.316196    1.3547209    1.2566725  0.038363896 -0.025807635 -0.0037114545            0           25            0           25            0           25 
  330000    0.8149901    1.3032275   -5.9844036    1.2223946    -4.762009   -3.2536439   -5.9844036        15625    1.3795965    1.2179079    1.3121779   0.03216974 -0.057073324 -0.0058485886            0           25            0           25            0           25 
  331000      0.81318    1.2968012   -5.9816117    1.2196797   -4.7619321   -3.2610047   -5.9816117        15625     1.296619     1.283963    1.3098216 -0.0073751599  -0.07275934 -0.0054230974            0           25            0           25            0           25 
  332000   0.80386844     1.277227   -5.9863083    1.2057133   -4.7805949   -3.3023229   -5.9863083        15625    1.2688286    1.2658654    1.2969872  0.021517767 -0.0072453601  0.036795743            0           25            0           25            0           25 
  333000   0.80683561    1.2597891   -5.9907707    1.2101638    -4.780607   -3.3225178   -5.9907707        15625    1.2745615    1.1329946    1.3718112  0.074811365  -0.04978415 -0.022134238            0           25            0           25            0           25 
  334000   0.81064144    1.2346248   -5.9964828    1.2158721   -4.7806107   -3.3516469   -5.9964828        15625    1.3127298    1.1860498    1.2050946  0.011588373 -0.026959448 0.0048886801            0           25            0           25            0           25 
  335000   0.80645773    1.2691083   -5.9902098     1.209597   -4.7806128   -3.3117374   -5.9902098        15625    1.2667505     1.244305    1.2962695 -0.020780782 -0.080222281 -0.0079760664            0           25            0           25            0           25 
  336000   0.80452768    1.2609944   -5.9872492    1.2067021   -4.7805471   -3.3210628   -5.9872492        15625    1.2969664    1.2047849     1.281232 -0.048739969  0.016176103 0.0010998354            0           25            0           25            0           25 
  337000   0.79882447    1.2958646   -5.9786393     1.198148   -4.7804913    -3.280648   -5.9786393        15625    1.3475245    1.3224112    1.2176582 -0.057678771 -0.050732847  0.014718858            0           25            0           25            0           25 
  338000   0.80816187    1.2410898   -5.9927272     1.212153   -4.7805742   -3.3441277   -5.9927272        15625    1.2660256    1.2489727    1.2082711  0.019203461 -0.0050596161  0.020480773            0           25            0           25            0           25 
  339000   0.80078467    1.2979673   -5.9816128     1.201088   -4.7805248   -3.2782478   -5.9816128        15625    1.2776739    1.2671898    1.3490383  0.018529609  0.033557196 -0.034768403            0           25            0           25            0           25 
  340000   0.80224097    1.2826469   -5.9838677    1.2032723   -4.7805954   -3.2960504   -5.9838677        15625    1.2806712    1.3264806    1.2407889  0.066881035  0.007887923 -0.066734179            0           25            0           25            0           25 
  341000   0.80983914    1.2375061   -5.9952615    1.2146687   -4.7805927    -3.348294   -5.9952615        15625    1.2749744    1.2788392    1.1587045 0.0027456709 0.0082321831  0.014902885            0           25            0           25            0           25 
  342000   0.81005333    1.2235534   -5.9955945      1.21499   -4.7806045   -3.3644547   -5.9955945        15625    1.1774514     1.226115    1.2670939 -0.065785933 -0.013962366 -0.0080348444            0           25            0           25            0           25 
  343000    0.7983025    1.2369851   -5.9933904     1.197365   -4.7960254   -3.3643296   -5.9933904        15625     1.205908    1.2589754     1.246072 -0.018123458 -0.0015082807   0.01600678            0           25            0           25            0           25 
  344000   0.79993978    1.2250453   -5.9958571    1.1998208   -4.7960363   -3.3781598   -5.9958571        15625    1.1944545    1.2972352    1.1834462 0.0023966085  0.035845146 -0.014694878            0           25            0           25            0           25 
  345000   0.79572682    1.2537685   -5.9894965    1.1935018   -4.7959947   -3.3448737   -5.9894965        15625    1.2735562    1.3075358    1.1802136  0.032511488  0.014319358 -0.012019295            0           25            0           25            0           25 
  346000   0.80177447    1.2031671   -5.9986424    1.2025726   -4.7960698   -3.4035153   -5.9986424        15625    1.1459673    1.1886586    1.2748753  0.022775253 -0.0049247427 -0.055912086            0           25            0           25            0           25 
  347000   0.80030471    1.2263046   -5.9963522    1.2003681    -4.795984   -3.3766501   -5.9963522        15625     1.222845    1.2061037     1.249965 -0.0045394997  0.016112751  -0.07135075            0           25            0           25            0           25 
  348000   0.80034518    1.2339937    -5.996402    1.2004288   -4.7959732   -3.3677398    -5.996402        15625    1.1864908    1.2478272     1.267663  -0.02925749  0.021404532 -0.007700842            0           25            0           25            0           25 
  349000   0.79937997    1.2259599   -5.9950333    1.1989811   -4.7960522   -3.3771172   -5.9950333        15625    1.2203459    1.1753053    1.2822284 -0.0066440249   0.03960508 -0.016016601            0           25            0           25            0           25 
  350000   0.79666207    1.1625572    -6.007832    1.1949046   -4.8129274   -3.4673751    -6.007832        15625    1.1742495    1.2085808    1.1048412 -0.0050663587 -0.0031190305  0.053078332            0           25            0           25            0           25 
  351000   0.79850939    1.1596065    -6.010654    1.1976754   -4.8129787   -3.4708415    -6.010654        15625    1.2421411    1.1129315    1.1237468  0.047350115 -0.016352035 -0.016153001            0           25            0           25            0           25 
  352000   0.79429911    1.1729672   -6.0042992    1.1913604   -4.8129388   -3.4553379   -6.0042992        15625    1.2234797    1.1572728     1.138149  0.019214231  0.020779872 -0.013866773            0           25            0           25            0           25 
  353000   0.79082802    1.2112898   -5.9990835    1.1861542   -4.8129293   -3.4109735   -5.9990835        15625    1.2044681    1.2082729    1.2211286  -0.02500135   0.04040652 0.0017678402            0           25            0           25            0           25 
  354000   0.79236319     1.184985   -6.0013735    1.1884568   -4.8129168   -3.4414064   -6.0013735        15625    1.1161686    1.1976953     1.241091  0.018055416  0.053495189 -0.012069608            0           25            0           25            0           25 
  355000    0.7925454    1.2030672   -6.0016874      1.18873   -4.8129573   -3.4205184   -6.0016874        15625    1.2307632    1.2311541    1.1472844 -0.0020766739 -0.0038153949  0.036492788            0           25            0           25            0           25 
  356000   0.79224696      1.19869   -6.0012999    1.1882824   -4.8130175   -3.4256448   -6.0012999        15625    1.1550424    1.1335561    1.3074713 -0.026753383 -0.012947576  0.044941374            0           25            0           25            0           25 
  357000   0.79549656    1.1811916   -6.0061143    1.1931564   -4.8129578    -3.445838   -6.0061143        15625    1.1725183    1.1665731    1.2044834  0.051964704  0.033785047 -0.024288842            0           25            0           25            0           25 
  358000   0.78694185    1.1363553    -6.012783    1.1803253   -4.8324576   -3.5172316    -6.012783        15625    1.1450297    1.1835515    1.0804848 0.0011570611 -0.047723448  0.015990194            0           25            0           25            0           25 
  359000   0.78841755    1.1387068   -6.0149649    1.1825387   -4.8324262   -3.5144785   -6.0149649        15625    1.1612155    1.1649662    1.0899387   0.01825618  0.030684185 -0.044163696            0           25            0           25            0           25 
  360000   0.79043888    1.1162934   -6.0179797    1.1855705   -4.8324092    -3.540403   -6.0179797        15625    1.1256784     1.112136    1.1110659 -0.019124397 -0.023396959  0.049854907            0           25            0           25            0           25 
  361000   0.78501863    1.1390406   -6.0099066    1.1774407   -4.8324659   -3.5141319   -6.0099066        15625    1.1589312    1.1126771    1.1455135 0.0046355098 0.00086139184 -0.024500186            0           25            0           25            0           25 
  362000   0.79093014    1.1222484   -6.0187969    1.1863073   -4.8324896    -3.533591   -6.0187969        15625     1.128689     1.102681    1.1353752 -0.012576899 -0.013046972 -0.028214724            0           25            0           25            0           25 
  363000   0.78946131    1.1328109   -6.0165588    1.1841042   -4.8324546   -3.5213308   -6.0165588        15625    1.2050359     1.150873    1.0425239 -0.0033468168 -0.012702034 0.0095019873            0           25            0           25            0           25 
  364000   0.79276362    1.0962698   -6.0214884    1.1890573   -4.8324311   -3.5636003   -6.0214884        15625    1.1162882    1.0603103    1.1122109 0.0065168015  0.068700851  0.011286183            0           25            0           25            0           25 
  365000   0.78727035    1.1314887   -6.0132825    1.1808181   -4.8324645   -3.5228711   -6.0132825        15625    1.1247535    1.1179792    1.1517333 -0.017145336  0.011563101 -0.052830776            0           25            0           25            0           25 
  366000   0.78890526    1.1177705   -6.0157501    1.1832702   -4.8324798   -3.5387639   -6.0157501        15625    1.1057853    1.0766724    1.1708539 -0.022431155 -0.038696479 -0.033056889            0           25            0           25            0           25 
  367000   0.78598491     1.150294   -6.0113136      1.17889   -4.8324235   -3.5010647   -6.0113136        15625    1.1762937     1.147143    1.1274454 -0.010350115  0.006445894 -0.074718471            0           25            0           25            0           25 
  368000   0.79314438     1.091847    -6.022165    1.1896284   -4.8325366   -3.5688248    -6.022165        15625    1.0507976    1.0983351    1.1264084 -0.0078370372  0.024113085 -0.067191548            0           25            0           25            0           25 
  369000   0.78309168    1.0898058   -6.0228556    1.1745505   -4.8483051   -3.5869558   -6.0228556        15625    1.0466728    1.1210829    1.1016616 -0.052168155  0.036347193 -0.048984703            0           25            0           25            0           25 
  370000   0.78979702      1.17016   -6.0078392    1.1846078   -4.8232315   -3.4688796   -6.0078392        15625    1.1331885    1.2259124    1.1513791 -0.0084071598   0.04397544 -0.021714633            0           25            0           25            0           25 
  371000   0.78674455    1.1878275   -6.0031817    1.1800294   -4.8231523   -3.4483519   -6.0031817        15625    1.2272624    1.1711891     1.165031 -0.063142894 -0.054861301  0.022428181            0           25            0           25            0           25 
  372000   0.78241018     1.136543   -6.0136746    1.1735283   -4.8401463   -3.5247029   -6.0136746        15625    1.0976993    1.1453471    1.1665827 -0.011228779  0.080363815 -0.00034174408            0           25            0           25            0           25 
  373000   0.78418879    1.1118682   -6.0163726    1.1761961   -4.8401765    -3.553292   -6.0163726        15625    1.0847081    1.1148676    1.1360289   0.07528436  0.023318699 -0.049589711            0           25            0           25            0           25 
  374000     0.782364     1.121188   -6.0135919    1.1734591   -4.8401328   -3.5424615   -6.0135919        15625    1.1112228    1.1573274    1.0950137  0.016083686  0.040672278 -0.084276663            0           25            0           25            0           25 
  375000   0.78520727    1.1002001   -6.0179206    1.1777237   -4.8401969   -3.5668172   -6.0179206        15625    1.0863526    1.1379788    1.0762689 -0.039671606 -0.019784553 -0.031872973            0           25            0           25            0           25 
  376000   0.78105144    1.1168663   -6.0116397    1.1714904   -4.8401493   -3.5474799   -6.0116397        15625      1.15637    1.1048402    1.0893888  0.014078666  0.023060063 0.0012011248            0           25            0           25            0           25 
  377000   0.78087621    1.1449804    -6.011444    1.1712276   -4.8402165   -3.5150077    -6.011444        15625    1.1581268    1.0962813    1.1805331  0.012213799 -0.00055946576  0.012880834            0           25            0           25            0           25 
  378000    0.7815743    1.1471435   -6.0124215    1.1722746   -4.8401469   -3.5124345   -6.0124215        15625    1.1224342    1.1674485    1.1515477 -0.050181194  0.010791573 -0.017537784            0           25            0           25            0           25 
  379000    0.7778531    1.0953083   -6.0225135    1.1666932   -4.8558203   -3.5881024   -6.0225135        15625    1.0976483    1.0857207    1.1025558 -0.018464402 -0.039011104 0.0078281295            0           25            0           25            0           25 
  380000   0.77300025    1.1030152   -6.0151913    1.1594145   -4.8557768   -3.5791388   -6.0151913        15625    1.0361097    1.1354566    1.1374793 -0.0074303345  0.025465875 -0.055644485            0           25            0           25            0           25 
  381000   0.78034103    1.0774065   -6.0251745    1.1704248   -4.8547497   -3.6077514   -6.0251745        15625     1.139735     1.028031    1.0644536  0.027306337  -0.01552709 -0.023494053            0           25            0           25            0           25 
  382000   0.77349342    1.1203822   -6.0148544    1.1601542   -4.8547002   -3.5579616   -6.0148544        15625    1.2006671    1.0977188    1.0627606  0.034523298  -0.09951482 -0.045024337            0           25            0           25            0           25 
  383000   0.78318744    1.0462216   -6.0294263    1.1746941   -4.8547322   -3.6438276   -6.0294263        15625    1.0368247    1.0528417    1.0489984 -0.094237163  0.022760132 -0.043223678            0           25            0           25            0           25 
  384000   0.77690293    1.0867885   -6.0199843    1.1652681   -4.8547162   -3.5968592   -6.0199843        15625    1.0919947    1.1189552    1.0494155 -0.020398236   0.03267423  -0.06733038            0           25            0           25            0           25 
  385000   0.77599618    1.0921663   -6.0186693     1.163908   -4.8547612   -3.5906799   -6.0186693        15625    1.1291692    1.0581251    1.0892045   0.10489931 -0.025294777  0.063435192            0           25            0           25            0           25 
  386000   0.77336925    1.1051811    -6.015841    1.1599679   -4.8558731   -3.5767283    -6.015841        15625    1.0838005    1.0580194    1.1737234 -0.029460256 -0.0095749706 0.00069483668            0           25            0           25            0           25 
  387000   0.77835836    1.0648811   -6.0233715    1.1674511   -4.8559205   -3.6234192   -6.0233715        15625    1.0518888    1.0366736    1.1060808 -0.030518902  0.033690064  0.018288981            0           25            0           25            0           25 
  388000   0.77709027    1.0777528   -6.0214542    1.1655491   -4.8559052   -3.6085061   -6.0214542        15625    1.0651344    1.1019402    1.0661839 0.0066933221 -0.030937545  0.022768035            0           25            0           25            0           25 
  389000   0.77147695    1.0319946   -6.0319612    1.1571297   -4.8748314   -3.6803933   -6.0319612        15625    1.0305405    1.0569449    1.0084982  0.018137835  0.001771042 0.0021690048            0           25            0           25            0           25 
  390000   0.77414746     1.088663   -6.0200935    1.1611352   -4.8589583   -3.5989317   -6.0200935        15625    1.0895713    1.1205903    1.0558274  0.045367646 -0.013309371  0.055313913            0           25            0           25            0           25 
  391000   0.77430471    1.1102309   -6.0203682     1.161371   -4.8589972   -3.5740077   -6.0203682        15625    1.1293354    1.0834881    1.1178694 -0.011758711  0.040831125  0.088101222            0           25            0           25            0           25 
  392000    0.7774645    1.0566883   -6.0251223    1.1661104    -4.859012   -3.6359931   -6.0251223        15625    1.0515562    1.0996762    1.0188324 -0.036999579 -0.037275121 -0.057228177            0           25            0           25            0           25 
  393000    0.7662588    1.0660527   -6.0238824    1.1493031   -4.8745794    -3.640722   -6.0238824        15625   0.95312256    1.0967173    1.1483183  0.058506886 -0.021322214 -0.007315357            0           25            0           25            0           25 
  394000    0.7733749    1.0225808   -6.0345682    1.1599764   -4.8745918   -3.6910493   -6.0345682        15625    1.0142542    1.0178456    1.0356425  0.027457337 -0.0011641593  0.023272563            0           25            0           25            0           25 
  395000   0.76854231     1.039732   -6.0273186    1.1527281   -4.8745905   -3.6711969   -6.0273186        15625      0.97946    1.0513276    1.0884085 -0.043689484  0.024684867 0.0084921494            0           25            0           25            0           25 
  396000   0.77000429    1.0294186   -6.0295145    1.1549209   -4.8745936   -3.6831369   -6.0295145        15625    1.0564857    1.0258105    1.0059597 -0.00083003108 -0.021692635  0.040115761            0           25            0           25            0           25 
  397000   0.76818186    1.0447493   -6.0267477    1.1521874   -4.8745603   -3.6653597   -6.0267477        15625    1.0208342    1.0971649    1.0162488  0.041300595  0.037011792  0.021578412            0           25            0           25            0           25 
  398000   0.77617209   0.99781255   -6.0387598    1.1641719   -4.8745879   -3.7197122   -6.0387598        15625   0.92993723   0.98902865    1.0744718  0.014695469  0.020588309 0.0077328335            0           25            0           25            0           25 
  399000   0.76569235    1.0638377   -6.0230561    1.1484534   -4.8746027   -3.6433091   -6.0230561        15625    1.0083305    1.1434083    1.0397744 -0.034854357 -0.058139888 -0.060474448            0           25            0           25            0           25 
  400000   0.77133734    1.0266408   -6.0315073    1.1569203    -4.874587   -3.6863453   -6.0315073        15625   0.98542305    1.0660979    1.0284015 -0.055901201 -0.020427046  0.028023168            0           25            0           25            0           25 
  401000   0.77058044    1.0295895   -6.0303679     1.155785   -4.8745829   -3.6829283   -6.0303679        15625   0.97056193    1.0740908    1.0441158  0.023905194  0.026791129  0.039271462            0           25            0           25            0           25 
  402000   0.76669506   0.97983788   -6.0425462    1.1499574   -4.8925888   -3.7585172   -6.0425462        15625    1.0037975    1.0303692   0.90534692 -0.0057222395 -0.0081805572 -0.030040628            0           25            0           25            0           25 
  403000   0.76259585   0.99425824   -6.0363845     1.143809   -4.8925755   -3.7418136   -6.0363845        15625   0.98786797   0.96220881    1.0326979 -0.027781372 -0.006790035  0.046599044            0           25            0           25            0           25 
  404000   0.75972243    1.0125636   -6.0320482    1.1394992   -4.8925489   -3.7206003   -6.0320482        15625    1.0539343   0.99594178   0.98781466 -0.011854282 -0.035106618 -0.0007289321            0           25            0           25            0           25 
  405000    0.7644219   0.98608183   -6.0391086    1.1465479   -4.8925607   -3.7512623   -6.0391086        15625   0.99441492    1.0171867   0.94664392  0.072531082 -0.018766851 -0.023397702            0           25            0           25            0           25 
  406000   0.76615928   0.96768434   -6.0416831    1.1491538   -4.8925294   -3.7725243   -6.0416831        15625   0.95053154   0.91077648     1.041745  0.029248027 -0.0071698915  0.019986831            0           25            0           25            0           25 
  407000   0.76267646    1.0111948   -6.0365128      1.14393   -4.8925829   -3.7222185   -6.0365128        15625   0.99134902    1.0524036   0.98983177 -0.048213955  0.048137807 -0.020752405            0           25            0           25            0           25 
  408000   0.75876816    1.0163254   -6.0306413    1.1380679   -4.8925734   -3.7162709   -6.0306413        15625    1.0671728   0.93359518    1.0482081 -0.0043975869 -0.049185399 0.0078241817            0           25            0           25            0           25 
  409000   0.76257536   0.98889812   -6.0363281    1.1437783   -4.8925498   -3.7479918   -6.0363281        15625   0.86813083    1.0345938    1.0639698 -0.016320076  0.078147939 -0.016528869            0           25            0           25            0           25 
  410000   0.76230582   0.99861322    -6.035929     1.143374   -4.8925549   -3.7367526    -6.035929        15625    1.0652137   0.92891248    1.0017135 -0.023586543 -0.067713962 -0.015689213            0           25            0           25            0           25 
  411000   0.75988934    1.0027731   -6.0322272    1.1397496   -4.8924776   -3.7318605   -6.0322272        15625    1.0048694   0.99565689    1.0077932  0.013548041  0.014411441  0.050308983            0           25            0           25            0           25 
  412000   0.76356556   0.99878503   -6.0378308    1.1452635   -4.8925673   -3.7365661   -6.0378308        15625    1.0173745   0.98275194   0.99622869  0.070737168 -0.011617967 0.0092453789            0           25            0           25            0           25 
  413000   0.76471723   0.98105836   -6.0395269    1.1469909    -4.892536   -3.7570518   -6.0395269        15625    1.0344736   0.99205154   0.91664997  0.048210572 -0.046182731 -0.0047708897            0           25            0           25            0           25 
  414000   0.76209653   0.91349452   -6.0509566    1.1430601   -4.9078965   -3.8506111   -6.0509566        15625   0.86940246    1.0004177   0.87066341  0.030157105  0.020067229  0.041389656            0           25            0           25            0           25 
  415000   0.76281903   0.90621821   -6.0520213    1.1441438   -4.9078775   -3.8590139   -6.0520213        15625   0.95787712   0.88164276   0.87913474   0.03147298  0.054191519  0.030413311            0           25            0           25            0           25 
  416000   0.76700298   0.88600829   -6.0583503    1.1504192   -4.9079311   -3.8824585   -6.0583503        15625   0.94756663   0.92164506   0.78881319  0.053170889 -0.039378793 -0.026179798            0           25            0           25            0           25 
  417000   0.76351614   0.90174755   -6.0530494    1.1451894     -4.90786   -3.8641707   -6.0530494        15625   0.85397492   0.86315007   0.98811767  0.025754953  0.020935498 0.0022661518            0           25            0           25            0           25 
  418000    0.7651676   0.88506056   -6.0555666    1.1476664   -4.9079002   -3.8835246   -6.0555666        15625   0.91254038   0.83834632   0.90429497 -0.0051224564  0.049826759  -0.03595152            0           25            0           25            0           25 
  419000   0.75657442   0.84801358   -6.0633544    1.1347776   -4.9285769   -3.9470797   -6.0633544        15625   0.82180291   0.79555487   0.92668296 -0.069064437 -0.0077498485 -0.081143081            0           25            0           25            0           25 
  420000   0.76030466   0.91735897   -6.0513182    1.1403725   -4.9109457   -3.8491876   -6.0513182        15625   0.96529178   0.91459925   0.87218589  0.066753464 -0.019233181 -0.049392417            0           25            0           25            0           25 
  421000   0.75513261   0.95388746   -6.0436047     1.132615   -4.9109897   -3.8069533   -6.0436047        15625    1.0008584   0.84811796     1.012686  0.031307009  0.010243288 -0.029945772            0           25            0           25            0           25 
  422000   0.75593344   0.94718631   -6.0448057    1.1338162   -4.9109896   -3.8147091   -6.0448057        15625   0.93010032   0.89836091    1.0130977 -0.016149662 -0.068958228  0.014435422            0           25            0           25            0           25 
  423000   0.74840801   0.92402823   -6.0509216    1.1225289   -4.9283928   -3.8589157   -6.0509216        15625   0.88268735   0.94873812   0.94065921  0.023559369 0.0033165369 -0.013073192            0           25            0           25            0           25 
  424000   0.74993094   0.98449667   -6.0377608    1.1248131   -4.9129477    -3.773484   -6.0377608        15625    1.0473055   0.98169141   0.92449313  0.028929426  0.057304568 -0.023505169            0           25            0           25            0           25 
  425000    0.7541545   0.94140785   -6.0440836     1.131148   -4.9129357   -3.8233432   -6.0440836        15625   0.93321814   0.90289224   0.98811318 -0.036813211 -0.00060200669 -0.044160985            0           25            0           25            0           25 
  426000   0.75790805   0.92601008   -6.0497363    1.1367779   -4.9129584   -3.8411875   -6.0497363        15625   0.95560201   0.89538287   0.92704536 -0.073969722  0.094411579  0.028034108            0           25            0           25            0           25 
  427000   0.75171105   0.86968723   -6.0569846     1.127483   -4.9295015   -3.9229191   -6.0569846        15625   0.89941678   0.82764796   0.88199696 0.0011951795   0.03038789   0.02237053            0           25            0           25            0           25 
  428000   0.74624676   0.89976623   -6.0488534    1.1192872   -4.9295662   -3.8881701   -6.0488534        15625   0.89390517   0.95235774   0.85303578 -0.087754236  -0.02216769  -0.02622736            0           25            0           25            0           25 
  429000   0.75180029   0.89523052   -6.0572218    1.1276169   -4.9296049   -3.8934585   -6.0572218        15625   0.90860131   0.99634401   0.78074625  0.046392493 -0.0012097312  0.026535544            0           25            0           25            0           25 
  430000    0.7495192   0.90288694   -6.0537659    1.1241955   -4.9295703   -3.8845623   -6.0537659        15625   0.91685324   0.89161782   0.90018978  -0.05000831 -0.033049964 -0.060001726            0           25            0           25            0           25 
  431000   0.75078504    0.9034793   -6.0556175    1.1260941   -4.9295234   -3.8838297   -6.0556175        15625    0.9003169   0.93246486   0.87765615  -0.05449148 -0.013982169  0.023181673            0           25            0           25            0           25 
  432000   0.75364079   0.86784367   -6.0599593    1.1303774   -4.9295819   -3.9251332   -6.0599593        15625   0.85369037   0.86186397   0.88797667 -0.0026392209  0.011222174 -0.0015317663            0           25            0           25            0           25 
  433000   0.75145042   0.89609114   -6.0566563    1.1270921   -4.9295642   -3.8924217   -6.0566563        15625   0.93523218   0.89390159   0.85913964 0.0040223648 -0.061651595 0.0082375943            0           25            0           25            0           25 
  434000   0.74859642   0.88816112   -6.0523476    1.1228115   -4.9295361   -3.9015719   -6.0523476        15625   0.93924528   0.87642844   0.84880964  0.054231761  0.019361238 -0.007816964            0           25            0           25            0           25 
  435000   0.75001205   0.87169096   -6.0544642    1.1249347   -4.9295295   -3.9206279   -6.0544642        15625   0.88978376   0.86326663   0.86202251  -0.04112045 0.0020471399  0.055761279            0           25            0           25            0           25 
  436000   0.75404058   0.87227623   -6.0605747    1.1309771   -4.9295976   -3.9200186   -6.0605747        15625   0.85329163   0.90426619   0.85927087 -0.022887815  0.002861203 -0.028575173            0           25            0           25            0           25 
  437000   0.74627608   0.92382759   -6.0489061    1.1193312   -4.9295749     -3.86033   -6.0489061        15625   0.96944955   0.95863759   0.84339563 0.0024596329 -0.035181543  0.047984807            0           25            0           25            0           25 
  438000   0.74553579   0.94174649   -6.0443851    1.1182208   -4.9261642   -3.8361799   -6.0443851        15625   0.94233308   0.88324033   0.99966604  0.024399576 -0.030456747 -0.038786372            0           25            0           25            0           25 
  439000   0.74945001   0.90903306   -6.0502692    1.1240917   -4.9261775   -3.8740559   -6.0502692        15625    0.9071257   0.89931786   0.92065562 -0.013426875 0.0071053902 -0.0046019648            0           25            0           25            0           25 
  440000   0.74363009   0.86948819   -6.0604974    1.1153625   -4.9451349   -3.9387828   -6.0604974        15625   0.86070828   0.94950785   0.79824845 0.0042464429  0.020139241 -0.013941907            0           25            0           25            0           25 
  441000    0.7443343   0.85106265   -6.0615381    1.1164188   -4.9451194   -3.9600932   -6.0615381        15625    0.8503211   0.88758442   0.81528244  0.029597917  0.091471271 -0.0093778167            0           25            0           25            0           25 
  442000   0.74199428    0.8806379   -6.0580687     1.112909   -4.9451598   -3.9259029   -6.0580687        15625   0.85194445   0.92152017   0.86844909  0.019274735 -0.030458846  0.028928761            0           25            0           25            0           25 
  443000   0.74514583    0.8456465    -6.062788    1.1176359    -4.945152   -3.9663945    -6.062788        15625   0.84776495   0.77011416   0.91906039  0.029916302  0.028054195 -0.0060344935            0           25            0           25            0           25 
  444000   0.74397186   0.85972354   -6.0659085    1.1158751   -4.9500334    -3.954983   -6.0659085        15625   0.89765738   0.87095288   0.81056036  0.019343902 -0.013054734   0.03985021            0           25            0           25            0           25 
  445000   0.74138419   0.86730551    -6.061987    1.1119939   -4.9499931   -3.9461673    -6.061987        15625   0.85497879   0.86956088   0.87737687 -0.013729262 -0.021477633 0.0028475714            0           25            0           25            0           25 
  446000   0.73979836   0.86017932   -6.0595984    1.1096153   -4.9499831   -3.9544052   -6.0595984        15625   0.82390332   0.87683722   0.87979742 -0.029161436  0.039826191 -0.016461513            0           25            0           25            0           25 
  447000   0.73947932   0.86177665   -6.0591295    1.1091368   -4.9499927    -3.952566   -6.0591295        15625   0.82895187   0.86226022   0.89411786  0.012481021 0.0057466555  0.036654683            0           25            0           25            0           25 
  448000   0.74283569   0.83511672    -6.064189     1.114171    -4.950018   -3.9834477    -6.064189        15625    0.8029446   0.86071035    0.8416952  0.020931616  0.021613778  0.053124554            0           25            0           25            0           25 
  449000   0.74130136   0.86619916   -6.0619216    1.1118697   -4.9500519   -3.9475066   -6.0619216        15625   0.87296466   0.84330708   0.88232573 -0.054808597  0.017390989 -0.0085677458            0           25            0           25            0           25 
  450000   0.74179675    0.8448329   -6.0626461    1.1126127   -4.9500333   -3.9722175   -6.0626461        15625   0.86274806   0.86916887   0.80258176 -0.00080858494 -0.045643625 0.0052280239            0           25            0           25            0           25 
  451000   0.73798304   0.76594566   -6.0751126    1.1068926     -4.96822   -4.0817088   -6.0751126        15625   0.74180692   0.79743255   0.75859751 -0.015680989 0.0035710835  0.006248201            0           25            0           25            0           25 
  452000   0.73688381   0.79119189   -6.0734154    1.1052438   -4.9681716   -4.0524402   -6.0734154        15625   0.78778071   0.82012735   0.76566761 -0.072507937  0.042447465 -0.056803493            0           25            0           25            0           25 
  453000   0.72938193   0.83539073   -6.0621702    1.0939918   -4.9681784    -4.001291   -6.0621702        15625   0.80701828   0.82735476   0.87179915 -0.056154586 -0.036655068 0.0017701472            0           25            0           25            0           25 
  454000   0.73765729   0.80608505   -6.0746216     1.106404   -4.9682176   -4.0352488   -6.0746216        15625    0.8139891   0.87477422   0.72949182  0.018696579  0.027808227  0.015416523            0           25            0           25            0           25 
  455000   0.73494017    0.8052959   -6.0704895    1.1023286    -4.968161   -4.0361055   -6.0704895        15625   0.81267774   0.84485083   0.75835915   0.01212632 -0.036789429  0.054919256            0           25            0           25            0           25 
  456000   0.73948774   0.77722281   -6.0773393    1.1091494   -4.9681898   -4.0686264   -6.0773393        15625   0.76406563   0.76995744   0.79764536  -0.01225154 -0.014815758  -0.05242028            0           25            0           25            0           25 
  457000   0.74222603   0.77603901    -6.081452    1.1132566   -4.9681954   -4.0700021    -6.081452        15625   0.77843199   0.80112297   0.74856206 -0.007364081 -0.0064628962  -0.01733238            0           25            0           25            0           25 
  458000   0.73279045   0.80930651   -6.0673129    1.0991043   -4.9682086   -4.0315113   -6.0673129        15625   0.78728386   0.79752097    0.8431147 -0.029071119 -0.043973969 -0.0043344036            0           25            0           25            0           25 
  459000   0.73301486   0.80367983   -6.0676383    1.0994408   -4.9681975   -4.0380125   -6.0676383        15625   0.81694245   0.82768426   0.76641277 0.0022022179 -0.038444777 -0.038122102            0           25            0           25            0           25 
  460000   0.72691301    0.7737262   -6.0736637    1.0902888    -4.983375   -4.0878585   -6.0736637        15625   0.74168086   0.80635529   0.77314246  0.014267309 -0.0045443057 -0.028027592            0           25            0           25            0           25 
  461000   0.72883266   0.78073008   -6.0765885     1.093168   -4.9834205   -4.0797977   -6.0765885        15625   0.78564435   0.77321766   0.78332824 -0.049684531 -0.0012479146 -0.054480676            0           25            0           25            0           25 
  462000   0.72809827   0.76305462   -6.0754489    1.0920665   -4.9833824   -4.1002173   -6.0754489        15625   0.76574729   0.77662571   0.74679087 -0.014198516 -0.034908589 -0.066690605            0           25            0           25            0           25 
  463000   0.72563648   0.78093158   -6.0717353    1.0883741   -4.9833613   -4.0795053   -6.0717353        15625   0.85623547   0.79118344   0.69537584   0.03443059 -0.0048392893 -0.020812936            0           25            0           25            0           25 
  464000   0.72855135   0.76862835   -6.0761638    1.0927461   -4.9834177   -4.0938016   -6.0761638        15625    0.7701585   0.79558595    0.7401406 -0.018344688  0.013471732 0.0026715769            0           25            0           25            0           25 
  465000   0.73449651   0.73517985   -6.0851177    1.1016632   -4.9834545   -4.1325519   -6.0851177        15625   0.80670382   0.67185634   0.72697938  0.011203674   0.03223103  0.031733571            0           25            0           25            0           25 
  466000   0.72850591   0.77993417    -6.076147    1.0926779   -4.9834691   -4.0807675    -6.076147        15625   0.81384423   0.72191534   0.80404294   0.01515985 -0.011058802 0.0073229134            0           25            0           25            0           25 
  467000   0.73430976    0.7292766   -6.0848285     1.101383   -4.9834454   -4.1393753   -6.0848285        15625   0.71881308   0.71858118   0.75043553 -0.009579541 -0.035070641 -0.007432181            0           25            0           25            0           25 
  468000   0.73288479   0.74656099   -6.0827247    1.0992457   -4.9834789   -4.1194037   -6.0827247        15625   0.74944944    0.8095552   0.68067833 -0.026718417  0.043134291 -0.024009688            0           25            0           25            0           25 
  469000   0.73164501   0.74991709   -6.0807966    1.0973862   -4.9834104   -4.1154508   -6.0807966        15625   0.72600313   0.76401359   0.75973455 0.0069939079  0.007301237 -0.032748662            0           25            0           25            0           25 
  470000    0.7300292   0.75247969   -6.0783482    1.0949627   -4.9833855   -4.1124599   -6.0783482        15625   0.76368589    0.7364389   0.75731427  0.062015916 -0.013413331  0.030684081            0           25            0           25            0           25 
  471000   0.73330018   0.75602711   -6.0833385    1.0998688   -4.9834697   -4.1084383   -6.0833385        15625   0.77807397   0.78972648   0.70028087  0.032012918 -0.021285461 0.0045947452            0           25            0           25            0           25 
  472000   0.72831682   0.67526444   -6.0914638    1.0923943   -4.9990695   -4.2175135   -6.0914638        15625   0.60614201   0.73936742   0.68028389 0.0013548686 -0.012471928 -0.0089228672            0           25            0           25            0           25 
  473000    0.7290349   0.70675913    -6.092578    1.0934714   -4.9991066   -4.1810984    -6.092578        15625   0.76338179   0.70480893   0.65208668  0.001233016  0.038962731 -0.0081062803            0           25            0           25            0           25 
  474000   0.72197351   0.73226153     -6.08196      1.08288     -4.99908   -4.1515551     -6.08196        15625   0.78288543   0.70842692   0.70547224 0.0013341006 0.0010723025  0.015927746            0           25            0           25            0           25 
  475000   0.72585333   0.78275763      -6.0726    1.0886993   -4.9839007   -4.0779312      -6.0726        15625   0.79235037    0.7337847   0.82213781 -0.010669133 -0.0050509201 0.0042005194            0           25            0           25            0           25 
  476000   0.72507709   0.69457671   -6.0910128    1.0875351   -5.0034777   -4.1995695   -6.0910128        15625   0.66811171   0.67924728   0.73637116 0.0063080251  0.062642248  -0.03658407            0           25            0           25            0           25 
  477000   0.72718939   0.68194071    -6.094156    1.0907033   -5.0034527   -4.2141694    -6.094156        15625   0.72677032   0.61370237   0.70534945 -0.0048209314 -0.016727892 -0.041778281            0           25            0           25            0           25 
  478000   0.72229657   0.62773803   -6.1043995    1.0833646   -5.0210349   -4.2944862   -6.1043995        15625   0.59837447   0.67999939   0.60484024 -0.018124858  0.065576275 -0.0036967512            0           25            0           25            0           25 
  479000    0.7187681   0.74110897   -6.0832402    1.0780723   -5.0051679   -4.1474029   -6.0832402        15625    0.8188109   0.76118085   0.64333517 -0.041387849 0.0059163084 -0.057608155            0           25            0           25            0           25 
  480000   0.72027489    0.7145935   -6.0854856    1.0803323   -5.0051533   -4.1780775   -6.0854856        15625    0.7264249   0.71352473   0.70383086  0.080709707 -0.010241763  0.050776438            0           25            0           25            0           25 
  481000   0.72168309   0.70334691   -6.0876195    1.0824445   -5.0051751   -4.1911162   -6.0876195        15625   0.67650301   0.73237364   0.70116409  0.017282559 -0.069238858  0.046513942            0           25            0           25            0           25 
  482000   0.71709399   0.64539928   -6.1006057    1.0755613   -5.0250444   -4.2780545   -6.1006057        15625   0.68810506   0.60525078     0.642842 -0.035697667  0.018667339 -0.016275989            0           25            0           25            0           25 
  483000   0.72245386   0.70626768   -6.0872032    1.0836005   -5.0036027   -4.1861633   -6.0872032        15625   0.68243811   0.67553527   0.76082966  0.025099396 -0.074609434 0.0095860307            0           25            0           25            0           25 
  484000   0.72550721   0.70457421   -6.0916893    1.0881802   -5.0035091   -4.1880297   -6.0916893        15625   0.80254742    0.6664264   0.64474881  0.019158958  0.013053143 -0.081620917            0           25            0           25            0           25 
  485000   0.72056049   0.63577063    -6.101045    1.0807607   -5.0202843   -4.2844387    -6.101045        15625   0.71018475   0.61432315     0.582804 0.0043230371 0.0016317175  0.034854221            0           25            0           25            0           25 
  486000   0.71064324    0.6973208   -6.0861516    1.0658859   -5.0202657   -4.2131814   -6.0861516        15625   0.63191034   0.73087583   0.72917624 -0.0076821991 0.0039226797 -0.026872552            0           25            0           25            0           25 
  487000   0.71345144   0.69262571   -6.0903835    1.0700979   -5.0202857   -4.2186355   -6.0903835        15625   0.66909073   0.72746355   0.68132284 -0.010422894 -0.024114807 -0.015218042            0           25            0           25            0           25 
  488000   0.72216522   0.61904491   -6.1034709    1.0831676   -5.0203033   -4.3038161   -6.1034709        15625    0.6089186   0.61320698   0.63500914  0.039963409 -0.038780139  0.055933823            0           25            0           25            0           25 
  489000   0.71783838   0.62973916   -6.0969699    1.0766778   -5.0202921   -4.2914274   -6.0969699        15625   0.68997263   0.66675826   0.53248658  0.016229525  0.009804931  0.062728777            0           25            0           25            0           25 
  490000   0.71317429   0.67859946   -6.0899757    1.0696822   -5.0202935   -4.2348774   -6.0899757        15625   0.65560035   0.64624341    0.7339546 -0.028910917 0.0010836312 -0.023593911            0           25            0           25            0           25 
  491000   0.71493874   0.67111855   -6.0926099    1.0723287   -5.0202813   -4.2435237   -6.0926099        15625   0.68191342   0.69916742   0.63227482 -0.0079617111 -0.011814981 -0.031553463            0           25            0           25            0           25 
  492000   0.71480702   0.67569373   -6.0924091    1.0721311    -5.020278   -4.2382251   -6.0924091        15625   0.54147382   0.81926022   0.66634716 -0.019274399   0.01179156  0.074907643            0           25            0           25            0           25 
  493000   0.71666137   0.67829261   -6.0952313    1.0749124   -5.0203189    -4.235258   -6.0952313        15625     0.646547     0.643044   0.74528684  0.027199198 -0.013713543 -0.0036934226            0           25            0           25            0           25 
  494000   0.71636219   0.67486221   -6.0947627    1.0744637    -5.020299   -4.2392085   -6.0947627        15625   0.59187225   0.74723555   0.68547883 -0.010753754  -0.02754126 -0.017340192            0           25            0           25            0           25 
  495000   0.72064018   0.64139254   -6.1011565    1.0808802   -5.0202763   -4.2779238   -6.1011565        15625   0.57562559   0.62792907   0.72062295 -0.072129697  0.038746927  -0.01731391            0           25            0           25            0           25 
  496000   0.70762094   0.63273166   -6.0987356    1.0613528   -5.0373828   -4.3050545   -6.0987356        15625   0.63106804   0.54659562   0.72053132 -0.013759129 0.0030437813 -0.068098032            0           25            0           25            0           25 
  497000   0.70843949    0.6238836   -6.0999518    1.0625805   -5.0373713   -4.3152838   -6.0999518        15625   0.65948707   0.61945007   0.59271367  -0.01031955 -0.074536698 -0.0034535275            0           25            0           25            0           25 
  498000   0.70919471   0.63028933   -6.1010912    1.0637133   -5.0373779   -4.3078764   -6.1010912        15625   0.63286969   0.62184592   0.63615238 -0.017961874 -0.032383149  0.025530797            0           25            0           25            0           25 
  499000   0.71632194   0.58345869   -6.1117953    1.0744033   -5.0373919   -4.3620925   -6.1117953        15625   0.58166267   0.54533301   0.62338038 -0.022020679 0.0015407726 -0.011179034            0           25            0           25            0           25 
  500000   0.71292241   0.60451288   -6.1066697    1.0693044   -5.0373653   -4.3376976   -6.1066697        15625   0.69114508   0.53018644   0.59220713 -0.010269504 -0.055953421  0.028283836            0           25            0           25            0           25 
Loop time of 5896.62 on 16 procs for 499991 steps with 13500 atoms

Pair  time (%) = 2552.69 (43.2907)
Neigh time (%) = 179.252 (3.03991)
Comm  time (%) = 2423.96 (41.1077)
Outpt time (%) = 7.9566 (0.134935)
Other time (%) = 732.754 (12.4267)

Nlocal:    843.75 ave 858 max 833 min
Histogram: 1 2 2 3 3 0 2 1 1 1
Nghost:    6260.25 ave 6282 max 6239 min
Histogram: 2 2 2 2 0 2 0 1 3 2
Neighs:    190706 ave 199983 max 182366 min
Histogram: 3 4 0 1 0 0 3 1 2 2

Total # of neighbors = 3051301
Ave neighs/atom = 226.022
Neighbor list builds = 18698
Dangerous builds = 0

unfix 2

run 50000
Memory usage per processor = 2.6244 Mbytes
Step Temp Press PotEng KinEng TotEng Enthalpy E_pair Volume Pxx Pyy Pzz Pxy Pxz Pyz Xlo Xhi Ylo Yhi Zlo Zhi 
  500000   0.71292241   0.60451288   -6.1066697    1.0693044   -5.0373653   -4.3376976   -6.1066697        15625   0.69114508   0.53018644   0.59220713 -0.010269504 -0.055953421  0.028283836            0           25            0           25            0           25 
  501000   0.70349687   0.67290084   -6.0925591    1.0551671   -5.0373919   -4.2585715   -6.0925591        15625   0.65379821    0.6088684    0.7560359 -0.016052693 -0.017236471 0.0029700496            0           25            0           25            0           25 
  502000   0.70487863   0.64618968   -6.0945689    1.0572396   -5.0373292   -4.2894245   -6.0945689        15625    0.6658429   0.68010552   0.59262064  0.030931444 -0.053968385  0.057035436            0           25            0           25            0           25 
  503000   0.71395468   0.59366618   -6.1083052    1.0708527   -5.0374525   -4.3503389   -6.1083052        15625   0.61605347   0.55081851   0.61412655 -0.017501045  0.041466861  0.022403271            0           25            0           25            0           25 
  504000   0.71660093   0.57689333     -6.11217    1.0748218   -5.0373482   -4.3696476     -6.11217        15625   0.54894526   0.55328296   0.62845177  0.032063147  0.035724972 -0.0046516804            0           25            0           25            0           25 
  505000   0.70767991   0.63125913     -6.09876    1.0614412   -5.0373188   -4.3066948     -6.09876        15625   0.66487378   0.58763777   0.64126586 -0.033428977 -0.031569248 -0.039958266            0           25            0           25            0           25 
  506000   0.71012139   0.61111166   -6.1024356    1.0651032   -5.0373324   -4.3300272   -6.1024356        15625   0.72867447   0.51661162   0.58804889 -0.030784838 0.0081037406  0.051066783            0           25            0           25            0           25 
  507000   0.70860514   0.62596932   -6.1001666     1.062829   -5.0373376   -4.3128361   -6.1001666        15625   0.57071635   0.64800235   0.65918927 -0.0023247999  0.065920531  0.032890449            0           25            0           25            0           25 
  508000   0.70595086   0.64591874   -6.0962446    1.0588479   -5.0373967   -4.2898056   -6.0962446        15625   0.58675434   0.65049581   0.70050609  0.019014811 -0.0012323393 -0.004300187            0           25            0           25            0           25 
  509000   0.71564029   0.57271772   -6.1107857    1.0733809   -5.0374048    -4.374537   -6.1107857        15625   0.64396136   0.54438172   0.52981008  -0.04542118  0.030234448 -0.023331944            0           25            0           25            0           25 
  510000   0.70492011   0.64663043   -6.0946041    1.0573018   -5.0373022   -4.2888874   -6.0946041        15625    0.6247785   0.66707342   0.64803936 -0.0010051075  0.011578931 -0.042108616            0           25            0           25            0           25 
  511000   0.70323868   0.66626805   -6.0921144    1.0547799   -5.0373345   -4.2661909   -6.0921144        15625    0.6259829   0.69558683   0.67723442  0.039571378 -0.035412186 0.0061750639            0           25            0           25            0           25 
  512000   0.71340768   0.60899303   -6.1074121    1.0700323   -5.0373799   -4.3325268   -6.1074121        15625   0.64725727    0.5897299   0.58999193  0.054035698 -0.077123009  0.020514591            0           25            0           25            0           25 
  513000   0.71238866   0.60180587   -6.1058877    1.0685038   -5.0373839   -4.3408493   -6.1058877        15625   0.60388656   0.65117449   0.55035657  0.034477653 -0.012709808  0.017323653            0           25            0           25            0           25 
  514000   0.71080103    0.6370302   -6.1034747    1.0661226   -5.0373522   -4.3000487   -6.1034747        15625   0.62075292   0.61480089   0.67553679  0.026353283 -0.040710657  0.011001993            0           25            0           25            0           25 
  515000   0.70726075   0.64557223   -6.0981853    1.0608125   -5.0373728   -4.2901827   -6.0981853        15625   0.68423156   0.62255035   0.62993479  -0.03992415  0.048728714  0.016865431            0           25            0           25            0           25 
  516000   0.71422085   0.59018363   -6.1086335    1.0712519   -5.0373816   -4.3542986   -6.1086335        15625    0.5648202   0.59615075   0.60957993 -0.070216999 0.0029458583  0.016521226            0           25            0           25            0           25 
  517000   0.70620336   0.65914681   -6.0965739    1.0592266   -5.0373473   -4.2744459   -6.0965739        15625   0.68371111   0.68872833   0.60500099 -0.043425745  0.047714602 -0.022918319            0           25            0           25            0           25 
  518000   0.70890319   0.63268739   -6.1006775     1.063276   -5.0374015   -4.3051244   -6.1006775        15625   0.58762207   0.63241132   0.67802879 -0.013202678  0.057730431  -0.02696626            0           25            0           25            0           25 
  519000   0.71295375   0.61139405   -6.1067713    1.0693514   -5.0374199   -4.3297879   -6.1067713        15625   0.58560286   0.62673122   0.62184808 -0.010660856 -0.026906018 -0.015370098            0           25            0           25            0           25 
  520000   0.70675865   0.64267048   -6.0974368    1.0600594   -5.0373774   -4.2935458   -6.0974368        15625   0.69910742   0.63196501   0.59693902  0.068335543  0.058254538 -0.026851553            0           25            0           25            0           25 
  521000   0.71085969   0.63034479   -6.1036092    1.0662106   -5.0373986   -4.3078329   -6.1036092        15625   0.57026041   0.64458631   0.67618764 -0.037117629 -0.025163071 -0.036488727            0           25            0           25            0           25 
  522000   0.70686944    0.6585167   -6.0975896    1.0602256    -5.037364   -4.2751919   -6.0975896        15625   0.59855927   0.72189913    0.6550917 -0.0026289444 -0.0070427031  0.011536934            0           25            0           25            0           25 
  523000   0.71110861   0.60423051   -6.1039645    1.0665839   -5.0373805   -4.3380397   -6.1039645        15625    0.5532459   0.63616793   0.62327771 -0.017937059  0.002876151  0.055947393            0           25            0           25            0           25 
  524000   0.70409201   0.65089207   -6.0933941    1.0560598   -5.0373343    -4.283987   -6.0933941        15625   0.62884107   0.66916017   0.65467497 0.0024959928 0.0072396509  0.066070413            0           25            0           25            0           25 
  525000   0.71094488   0.62638649   -6.1036913    1.0663383    -5.037353   -4.3123686   -6.1036913        15625   0.59771223   0.63511852   0.64632872   -0.0461259 0.0079171512 0.0016418716            0           25            0           25            0           25 
  526000   0.70656301   0.64017819   -6.0971312     1.059766   -5.0373652   -4.2964182   -6.0971312        15625   0.66100811   0.67739385   0.58213262 -0.0072425562  0.064370156 -0.036863787            0           25            0           25            0           25 
  527000   0.70766313   0.65253514   -6.0988479    1.0614161   -5.0374318   -4.2821828   -6.0988479        15625   0.64504324   0.73744923   0.57511296 -0.047053189  0.016916889 -0.021216218            0           25            0           25            0           25 
  528000   0.71142474   0.61016173   -6.1044104    1.0670581   -5.0373524   -4.3311467   -6.1044104        15625   0.54278806    0.6769035   0.61079364 -0.089677172 -0.025034635 -0.020329121            0           25            0           25            0           25 
  529000   0.70716111    0.6314939   -6.0980231    1.0606631     -5.03736   -4.3064643   -6.0980231        15625   0.54396849   0.71775259   0.63276063 -0.056169062 -0.018992291 0.0046501033            0           25            0           25            0           25 
  530000   0.70775075   0.64045694      -6.0989    1.0615475   -5.0373526   -4.2960829      -6.0989        15625   0.68805216   0.62417346   0.60914521  0.047100641 -0.021774179 -0.031508294            0           25            0           25            0           25 
  531000    0.7122218   0.62883253   -6.1056583    1.0682536   -5.0374047   -4.3095893   -6.1056583        15625   0.66276805   0.59602653   0.62770301  0.061504177 -0.061741671 -0.016200181            0           25            0           25            0           25 
  532000   0.70602374   0.65458421   -6.0962809    1.0589572   -5.0373237   -4.2797031   -6.0962809        15625   0.65086181   0.67289515   0.63999565 -0.032157275 0.0041583282 -0.011759672            0           25            0           25            0           25 
  533000   0.70658337   0.64012107    -6.097112    1.0597965   -5.0373154   -4.2964346    -6.097112        15625   0.56049202   0.64732069    0.7125505 -0.014178103 -0.046517775 -0.046465767            0           25            0           25            0           25 
  534000   0.71315267   0.60535423   -6.1070706    1.0696498   -5.0374208   -4.3367794   -6.1070706        15625   0.63282623   0.59278634   0.59045011 -0.026309843  -0.03315672  -0.03977106            0           25            0           25            0           25 
  535000   0.71160951   0.61200536   -6.1047394    1.0673352   -5.0374042   -4.3290647   -6.1047394        15625   0.59758561    0.6465992   0.59183126 -0.029484405 -0.010943698  0.017425759            0           25            0           25            0           25 
  536000   0.71710224   0.56674366   -6.1129167    1.0755737    -5.037343   -4.3813897   -6.1129167        15625   0.62309678   0.54574045   0.53139376  0.024972787 -0.015336677 -0.029119836            0           25            0           25            0           25 
  537000   0.71301695   0.61868447   -6.1068512    1.0694462    -5.037405    -4.321335   -6.1068512        15625   0.63107658   0.60225694    0.6227199  0.019557075  -0.01811748  0.056745795            0           25            0           25            0           25 
  538000   0.71325498   0.60479621   -6.1071916    1.0698032   -5.0373884   -4.3373928   -6.1071916        15625   0.58064356    0.6654071   0.56833797  -0.03138185 -0.030733512 0.0027275697            0           25            0           25            0           25 
  539000   0.70912307   0.62364233   -6.1009821    1.0636058   -5.0373763    -4.315568   -6.1009821        15625   0.65882339   0.57556698   0.63653663  -0.01201536 -0.013101491 -0.0066146206            0           25            0           25            0           25 
  540000   0.71427664   0.59026899   -6.1087561    1.0713356   -5.0374205   -4.3542388   -6.1087561        15625   0.62955555   0.59642853   0.54482287  0.088197895 -0.00041742472 -0.013662358            0           25            0           25            0           25 
  541000   0.70557758   0.66894211   -6.0956379     1.058288   -5.0373499   -4.2631113   -6.0956379        15625    0.7643541   0.65813796   0.58433428 -0.007783492 -0.0032595718  0.024299952            0           25            0           25            0           25 
  542000   0.70968166   0.63724591   -6.1018528    1.0644436   -5.0374091    -4.299856   -6.1018528        15625   0.56563854   0.65901756   0.68708162   0.10877827 0.0063658048  0.013825627            0           25            0           25            0           25 
  543000   0.71426466   0.59030103   -6.1087368    1.0713176   -5.0374192   -4.3542004   -6.1087368        15625   0.53861574   0.61702524   0.61526211  0.010847214 -0.0019130631 0.0013603516            0           25            0           25            0           25 
  544000   0.71039847   0.64019826   -6.1028867    1.0655188   -5.0373679   -4.2963977   -6.1028867        15625   0.67443356   0.57719536   0.66896585  0.010626204 -0.011919729 -0.018916233            0           25            0           25            0           25 
  545000   0.71060592   0.62219762   -6.1032275    1.0658299   -5.0373975   -4.3172614   -6.1032275        15625   0.67787791   0.57995419   0.60876077 -0.011060105  0.084293282 -0.049258642            0           25            0           25            0           25 
  546000   0.70876243    0.6276634   -6.1004647    1.0630649   -5.0373998   -4.3109375   -6.1004647        15625   0.64891689   0.61914069   0.61493261 0.0038047017  0.032512529  0.051812094            0           25            0           25            0           25 
  547000   0.71189611   0.61887453   -6.1052016    1.0677651   -5.0374365   -4.3211466   -6.1052016        15625   0.58633641   0.64366829   0.62661889  0.012686127 -0.0042619933 -0.0027814597            0           25            0           25            0           25 
  548000   0.70569406   0.64016044   -6.0958628    1.0584627   -5.0374001   -4.2964736   -6.0958628        15625   0.68046667   0.69515492   0.54485972 -0.012671218  0.016857204  0.024805532            0           25            0           25            0           25 
  549000   0.71180871   0.60105034   -6.1050051     1.067634   -5.0373711    -4.341711   -6.1050051        15625     0.606499   0.57631428   0.62033775 -0.044332442  0.030606338 -0.011752524            0           25            0           25            0           25 
  550000   0.70904061   0.60595327   -6.1008359    1.0634821   -5.0373537   -4.3360189   -6.1008359        15625   0.57856267   0.62155188   0.61774525 -0.054192021  0.040517435 -0.036475037            0           25            0           25            0           25 
Loop time of 1093.84 on 16 procs for 50000 steps with 13500 atoms

Pair  time (%) = 255.519 (23.3598)
Neigh time (%) = 16.0781 (1.46987)
Comm  time (%) = 560.15 (51.2095)
Outpt time (%) = 0.78845 (0.0720808)
Other time (%) = 261.305 (23.8888)

Nlocal:    843.75 ave 857 max 831 min
Histogram: 2 2 1 2 1 3 1 0 0 4
Nghost:    6254.62 ave 6279 max 6226 min
Histogram: 1 0 0 3 4 2 2 2 1 1
Neighs:    190764 ave 201234 max 181786 min
Histogram: 3 2 2 1 0 1 1 3 2 1

Total # of neighbors = 3052219
Ave neighs/atom = 226.09
Neighbor list builds = 1676
Dangerous builds = 0

fix 4 all rdf 500 ${pwd}/rdf_run.dat 100 1 1
fix 4 all rdf 500 /home/dtlussier/rdfval2/rdf_run.dat 100 1 1

run ${run_ts} uptorun 750000 uptoMemory usage per processor = 2.6244 Mbytes
Step Temp Press PotEng KinEng TotEng Enthalpy E_pair Volume Pxx Pyy Pzz Pxy Pxz Pyz Xlo Xhi Ylo Yhi Zlo Zhi 
  550000   0.70904061   0.60595327   -6.1008359    1.0634821   -5.0373537   -4.3360189   -6.1008359        15625   0.57856267   0.62155188   0.61774525 -0.054192021  0.040517435 -0.036475037            0           25            0           25            0           25 
  551000   0.71296671   0.61168513   -6.1067377    1.0693709   -5.0373668   -4.3293979   -6.1067377        15625     0.621875   0.57566137   0.63751903 -0.024503223 -0.033496606  0.027707208            0           25            0           25            0           25 
  552000   0.71066683   0.60756267   -6.1032776    1.0659213   -5.0373563   -4.3341588   -6.1032776        15625   0.63385765   0.62497458   0.56385577 0.0046813215  0.048208077 0.0024553998            0           25            0           25            0           25 
  553000   0.71209378     0.605088    -6.105385    1.0680615   -5.0373235   -4.3369901    -6.105385        15625   0.63304943   0.63114359   0.55107098 -0.016654838 -0.038188402  0.006201333            0           25            0           25            0           25 
  554000   0.70708408   0.64885219   -6.0979086    1.0605476    -5.037361   -4.2863747   -6.0979086        15625   0.58737572   0.66385116   0.69532968 -0.056948322 -0.048660193 -0.041571188            0           25            0           25            0           25 
  555000   0.71108829   0.60434756   -6.1038883    1.0665534   -5.0373349   -4.3378586   -6.1038883        15625    0.6290139   0.60078338   0.58324541 0.0054926578 -0.0097545493 -0.0062119631            0           25            0           25            0           25 
  556000    0.7117391   0.61897891   -6.1049223    1.0675296   -5.0373927    -4.320982   -6.1049223        15625   0.65517821   0.60154416   0.60021436 -0.012580406   0.03587512  0.063527137            0           25            0           25            0           25 
  557000   0.70616857   0.64345175   -6.0965259    1.0591744   -5.0373515   -4.2926157   -6.0965259        15625   0.64763532   0.64528101   0.63743893 0.0020615135 -0.019992819 -0.0095380186            0           25            0           25            0           25 
  558000   0.71214916   0.61020988    -6.105522    1.0681446   -5.0373774   -4.3311159    -6.105522        15625   0.59937567    0.6708049   0.56044908 -0.0075239528  0.023028221   0.01392167            0           25            0           25            0           25 
  559000   0.71474138   0.59024172    -6.109418    1.0720326   -5.0373853   -4.3542352    -6.109418        15625    0.5714096    0.5976322   0.60168337 -0.058621582 -0.00098039896  0.009638339            0           25            0           25            0           25 
  560000   0.70996411    0.6399678   -6.1022625    1.0648673   -5.0373952   -4.2966917   -6.1022625        15625   0.69862246   0.62640468   0.59487624 -0.043165713 -0.045307618 -0.034489082            0           25            0           25            0           25 
  561000   0.71352763   0.59299396   -6.1075985    1.0702122   -5.0373864   -4.3510508   -6.1075985        15625   0.62442664   0.62688265   0.52767259 -0.0012818447   0.06986179  0.024970679            0           25            0           25            0           25 
  562000   0.70582076   0.63850234   -6.0960774    1.0586527   -5.0374247   -4.2984174   -6.0960774        15625    0.5538753   0.65794361    0.7036881  0.048319919   0.01424019  -0.06774722            0           25            0           25            0           25 
  563000   0.71162998   0.59768979   -6.1047285    1.0673659   -5.0373626    -4.345592   -6.1047285        15625    0.6443921   0.53934113   0.60933614 -0.044420833 0.0041435534 -0.046850713            0           25            0           25            0           25 
  564000   0.71268759   0.60552101   -6.1063829    1.0689522   -5.0374307   -4.3365962   -6.1063829        15625   0.58146783   0.67500314   0.56009205 -0.0036603734 -0.027084973 0.0059053917            0           25            0           25            0           25 
  565000   0.70988323   0.61730889   -6.1021255     1.064746   -5.0373795   -4.3229017   -6.1021255        15625      0.67201   0.58754941   0.59236728 -0.0074507187  0.018044703 -0.0030789075            0           25            0           25            0           25 
  566000   0.70843244   0.64501488   -6.0999428    1.0625699   -5.0373729   -4.2908279   -6.0999428        15625   0.72543112   0.60601925   0.60359427 -0.041599925  0.016766194 -0.0016273197            0           25            0           25            0           25 
  567000   0.70234915   0.66082222   -6.0907719    1.0534457   -5.0373262   -4.2724857   -6.0907719        15625   0.63877244   0.68083067   0.66286354 0.0022260402 -0.040070299  0.015613351            0           25            0           25            0           25 
  568000   0.70247288   0.66694056   -6.0909763    1.0536313    -5.037345   -4.2654231   -6.0909763        15625   0.66374726   0.69914137   0.63793304 -0.025637837 -0.063927183 0.0047494676            0           25            0           25            0           25 
  569000   0.71442392   0.60101648   -6.1089585    1.0715565    -5.037402    -4.341781   -6.1089585        15625    0.6004845   0.57884977   0.62371516  0.027243875 -0.049389406 -0.019749607            0           25            0           25            0           25 
  570000   0.70819094   0.63769585   -6.0996401    1.0622077   -5.0374324   -4.2993585   -6.0996401        15625   0.60523425   0.68673222   0.62112107 -0.031693929 -0.0043635643 -0.025458895            0           25            0           25            0           25 
  571000   0.70930434   0.62351282   -6.1012879    1.0638777   -5.0374102   -4.3157519   -6.1012879        15625   0.61820447   0.66662718    0.5857068  0.017383576   0.04208416 -0.0078431284            0           25            0           25            0           25 
  572000   0.71156766    0.6226202   -6.1046565    1.0672724   -5.0373841   -4.3167588   -6.1046565        15625   0.63487004   0.64835843   0.58463212  0.022038928 -0.034758881  0.014910991            0           25            0           25            0           25 
  573000   0.70951672   0.62706349    -6.101505    1.0641962   -5.0373088   -4.3115408    -6.101505        15625   0.63560586   0.72932209   0.51626254  0.011960343 -0.0021937126 0.0098029616            0           25            0           25            0           25 
  574000   0.71317639   0.58990109   -6.1070857    1.0696853   -5.0374003   -4.3546444   -6.1070857        15625   0.56244724   0.64070331   0.56655273 -0.063380245 -0.024419971 0.00026564602            0           25            0           25            0           25 
  575000   0.70711345   0.64551479   -6.0979926    1.0605916    -5.037401   -4.2902774   -6.0979926        15625   0.60590763   0.67514648   0.65549025   0.04718459 -0.071410841  0.012263769            0           25            0           25            0           25 
  576000   0.70698702   0.65504534   -6.0977567     1.060402   -5.0373547   -4.2792004   -6.0977567        15625   0.64700008   0.66879689   0.64933906 -0.013328537 -0.009227794  0.045534183            0           25            0           25            0           25 
  577000   0.71044312   0.59800081   -6.1029621    1.0655857   -5.0373764   -4.3452458   -6.1029621        15625   0.64551544    0.5686666   0.57982039 -0.004955965 -0.013525665  0.025724277            0           25            0           25            0           25 
  578000   0.70888755   0.63370762   -6.1006537    1.0632526   -5.0374011   -4.3039432   -6.1006537        15625   0.63812218   0.62626736   0.63673333  0.020482075 0.0053446531  0.042461283            0           25            0           25            0           25 
  579000   0.70784493    0.6196511   -6.0990622    1.0616887   -5.0373735   -4.3201847   -6.0990622        15625   0.64157288   0.65009634   0.56728409 -0.056281927  0.038994699  0.018503314            0           25            0           25            0           25 
  580000   0.71457568   0.59985642   -6.1091751    1.0717841    -5.037391   -4.3431127   -6.1091751        15625   0.61504413   0.53584176   0.64868337  -0.04241262 -0.024828146 -0.036998568            0           25            0           25            0           25 
  581000   0.70817865   0.63616973   -6.0995271    1.0621893   -5.0373378   -4.3010302   -6.0995271        15625   0.68834021   0.62780122   0.59236777  -0.06359233  0.023124109  0.010066114            0           25            0           25            0           25 
  582000   0.70649154   0.63977548   -6.0970524    1.0596588   -5.0373936   -4.2969127   -6.0970524        15625   0.65049424    0.6091796   0.65965259 -0.0089210655 -0.0039478511   0.01732359            0           25            0           25            0           25 
  583000   0.71141019   0.61432742   -6.1044037    1.0670362   -5.0373675   -4.3263404   -6.1044037        15625   0.56712328   0.66247931   0.61337966  0.036723625 -0.062992839  0.069915686            0           25            0           25            0           25 
  584000   0.71199888   0.60630104   -6.1053172    1.0679192    -5.037398   -4.3356607   -6.1053172        15625   0.57500973   0.64433869    0.5995547  0.017060899 -0.041271433 -0.010345267            0           25            0           25            0           25 
  585000   0.71242745   0.61930058   -6.1059611     1.068562   -5.0373991    -4.320616   -6.1059611        15625   0.61127342    0.6015857   0.64504262 -0.054672988 -0.032144778  0.021800956            0           25            0           25            0           25 
  586000   0.70413172   0.65807909    -6.093476    1.0561193   -5.0373566    -4.275691    -6.093476        15625   0.60354901   0.66013144   0.71055683  0.018759476 -0.038532302  0.038504884            0           25            0           25            0           25 
  587000   0.70887551   0.64750203   -6.1006512    1.0632345   -5.0374167    -4.287993   -6.1006512        15625   0.64406112    0.6037503   0.69469468  0.027298776  0.013669203  0.020798543            0           25            0           25            0           25 
  588000   0.71188082   0.62256446   -6.1051435    1.0677421   -5.0374014   -4.3168407   -6.1051435        15625      0.63036   0.59699681   0.64033657  0.042302848 -0.084604582  0.024147581            0           25            0           25            0           25 
  589000   0.70573238   0.63841967   -6.0959014    1.0585202   -5.0373813   -4.2984696   -6.0959014        15625   0.65519362   0.59653543   0.66352994 -0.014586902  0.055624647  0.001701442            0           25            0           25            0           25 
  590000   0.71377294   0.60320665   -6.1079998    1.0705801   -5.0374197   -4.3392638   -6.1079998        15625   0.62458229   0.65147573   0.53356192  0.019772426 -0.021508172 -0.023350316            0           25            0           25            0           25 
  591000   0.70580991   0.65743018   -6.0960166    1.0586364   -5.0373801   -4.2764656   -6.0960166        15625   0.61121176   0.67894599   0.68213278 -0.042771213 0.0068465245 -0.00020218358            0           25            0           25            0           25 
  592000   0.70691222   0.64468441   -6.0976674    1.0602898   -5.0373776   -4.2912151   -6.0976674        15625   0.65505913   0.62237594   0.65661815 -0.022410522   0.02335626  0.010208235            0           25            0           25            0           25 
  593000   0.70930816   0.64102123   -6.1012861    1.0638834   -5.0374027     -4.29548   -6.1012861        15625   0.61666833   0.65236159   0.65403377 -0.026974794 -0.045989347 -0.022935492            0           25            0           25            0           25 
  594000   0.71558769   0.58768628   -6.1107196     1.073302   -5.0374176   -4.3572251   -6.1107196        15625   0.63691887   0.62059506    0.5055449 -0.051755545  0.037458595 -0.0014893121            0           25            0           25            0           25 
  595000   0.71091537   0.62033041   -6.1036866    1.0662941   -5.0373925   -4.3194175   -6.1036866        15625   0.56677475   0.62788835   0.66632812 0.0010061392 0.0085017582 -0.0023764657            0           25            0           25            0           25 
  596000   0.71221931   0.61062808   -6.1055755    1.0682498   -5.0373256   -4.3305802   -6.1055755        15625   0.64790345   0.56460437   0.61937643 0.0056684178 -0.068921134  0.042588545            0           25            0           25            0           25 
  597000   0.71007481   0.62673428   -6.1024511    1.0650333   -5.0374178   -4.3120309   -6.1024511        15625   0.63197189   0.58971105   0.65851991 -0.030832938 -0.053409343 0.0071253007            0           25            0           25            0           25 
  598000   0.70995493   0.61070936   -6.1022232    1.0648535   -5.0373697   -4.3305302   -6.1022232        15625   0.67131693    0.6340913   0.52671985 -0.025202336  0.078362411  0.045655474            0           25            0           25            0           25 
  599000   0.71274003   0.59839742   -6.1063685    1.0690309   -5.0373377   -4.3447481   -6.1063685        15625   0.58741114    0.6636703   0.54411083  0.047115499 -0.0028640804  0.025799078            0           25            0           25            0           25 
  600000   0.70895684   0.64022818   -6.1007387    1.0633565   -5.0373822   -4.2963774   -6.1007387        15625    0.5924391   0.61678559   0.71145986 -0.073130476 0.0065353847 0.00046649661            0           25            0           25            0           25 
  601000   0.70644865   0.64011837   -6.0969286    1.0595945   -5.0373341   -4.2964564   -6.0969286        15625   0.67433172   0.62526247   0.62076091 0.0081505555 -0.035155763 -0.012481433            0           25            0           25            0           25 
  602000   0.71241403   0.60923232   -6.1059323    1.0685419   -5.0373904   -4.3322604   -6.1059323        15625   0.63405482   0.58316954   0.61047259 -0.003638586  0.018522727 -0.027259544            0           25            0           25            0           25 
  603000   0.71146756   0.61741816   -6.1045331    1.0671223   -5.0374108   -4.3228065   -6.1045331        15625    0.6772462   0.53963818    0.6353701  0.031775788  0.029917231  -0.06642104            0           25            0           25            0           25 
  604000   0.70654853   0.65177098   -6.0971064    1.0597443   -5.0373622   -4.2829976   -6.0971064        15625   0.67363952     0.644963   0.63671043 -0.0031980554  0.031075347 -0.0052808408            0           25            0           25            0           25 
  605000   0.70998622   0.62890123   -6.1023287    1.0649004   -5.0374283   -4.3095333   -6.1023287        15625   0.59602983    0.6897401   0.60093376 -0.0044448826  0.052002943  0.030547024            0           25            0           25            0           25 
  606000   0.70627294   0.62790047   -6.0966705    1.0593309   -5.0373396   -4.3106029   -6.0966705        15625   0.65095798   0.63231201   0.60043141 0.0089118163 -0.028497282 -0.00053730931            0           25            0           25            0           25 
  607000   0.70698639   0.65172721   -6.0977203     1.060401   -5.0373192   -4.2830053   -6.0977203        15625   0.60655796   0.63072566   0.71789801 -0.027890773  0.042283917 0.0079263541            0           25            0           25            0           25 
  608000   0.71109747   0.63063114   -6.1039826    1.0665672   -5.0374154   -4.3075183   -6.1039826        15625   0.72179841   0.56284448   0.60725051 -0.0077100136  0.012145827 -0.023562693            0           25            0           25            0           25 
  609000   0.70398742   0.65510441   -6.0932677    1.0559029   -5.0373648   -4.2791421   -6.0932677        15625   0.66955952   0.62274083   0.67301287 -0.046888167 -0.00070537626 -0.015646424            0           25            0           25            0           25 
  610000   0.70527586   0.64228922   -6.0952065    1.0578354    -5.037371   -4.2939807   -6.0952065        15625   0.66510915   0.63224413   0.62951439 0.0060599588 -0.055818601 -0.020703771            0           25            0           25            0           25 
  611000   0.70798026   0.62912263   -6.0992719    1.0618917   -5.0373802    -4.309229   -6.0992719        15625   0.68455749   0.64033115   0.56247926 -0.0020336688 -0.033517416   0.04726845            0           25            0           25            0           25 
  612000   0.71078692   0.62275662   -6.1035501    1.0661014   -5.0374487   -4.3166656   -6.1035501        15625   0.60924498   0.56620276   0.69282213 -0.071841172   0.10142521 -0.062633807            0           25            0           25            0           25 
  613000   0.71183171   0.59268299   -6.1050944    1.0676685   -5.0374259   -4.3514502   -6.1050944        15625   0.54087889   0.63823259   0.59893749  0.018036902 0.0078912557 -0.0077896791            0           25            0           25            0           25 
  614000   0.71219343   0.61869788   -6.1055892     1.068211   -5.0373782   -4.3212927   -6.1055892        15625    0.6566534   0.58367319   0.61576703 -0.039004666  -0.04623059  0.014898334            0           25            0           25            0           25 
  615000    0.7084765   0.63029059   -6.0999922     1.062636   -5.0373562   -4.3078532   -6.0999922        15625   0.59554512   0.65403893   0.64128773  -0.03669112 -0.026137814  -0.02532009            0           25            0           25            0           25 
  616000   0.71219564   0.60761786   -6.1056138    1.0682143   -5.0373994    -4.334138   -6.1056138        15625   0.66349075   0.60847151   0.55089133 -0.089578522 -0.020083423 0.0049686544            0           25            0           25            0           25 
  617000   0.70902752   0.64929539   -6.1008704    1.0634625   -5.0374079   -4.2859086   -6.1008704        15625   0.68886146   0.64644147   0.61258323   0.06903294    0.0079611  0.067860573            0           25            0           25            0           25 
  618000   0.70955257   0.62010986   -6.1016982      1.06425   -5.0374482   -4.3197285   -6.1016982        15625    0.6197785   0.59001631   0.65053476 -0.0065479131  0.011334925  0.019044705            0           25            0           25            0           25 
  619000   0.71427986   0.58477193   -6.1087486    1.0713404   -5.0374081   -4.3605888   -6.1087486        15625   0.59407895   0.59889579   0.56134106  0.057565174   0.04962011 -0.026131508            0           25            0           25            0           25 
  620000   0.71241853   0.61335966   -6.1059539    1.0685486   -5.0374053   -4.3274983   -6.1059539        15625   0.65074519   0.59854598   0.59078779 0.0080805696  0.016584093 -0.014480363            0           25            0           25            0           25 
  621000   0.71196201   0.60699904   -6.1052634    1.0678639   -5.0373995   -4.3348544   -6.1052634        15625   0.59436592   0.66002814   0.56660307  0.041384507  -0.04502944 -0.0066216681            0           25            0           25            0           25 
  622000   0.71014058   0.61550232     -6.10253     1.065132   -5.0373981   -4.3250111     -6.10253        15625   0.62646947   0.63961612   0.58042136  0.035378118  0.040295168 -0.0058928988            0           25            0           25            0           25 
  623000   0.70930092   0.62582043      -6.1013    1.0638726   -5.0374274   -4.3130982      -6.1013        15625   0.62386436   0.58749966   0.66609727 -0.010494008 -0.058681736 -0.077111229            0           25            0           25            0           25 
  624000   0.71137111   0.61688293   -6.1043632    1.0669776   -5.0373856   -4.3234007   -6.1043632        15625   0.58642083   0.59089583   0.67333212 -0.055240847  0.044584253 -0.00058119316            0           25            0           25            0           25 
  625000    0.7074423   0.63707657   -6.0984887    1.0610848   -5.0374038   -4.3000467   -6.0984887        15625   0.67178849   0.58881513    0.6506261  0.038327639 -0.013516959 -0.036516298            0           25            0           25            0           25 
  626000   0.70835872   0.62070065   -6.0997906    1.0624594   -5.0373312   -4.3189277   -6.0997906        15625   0.66335364   0.58864981   0.61009851 -0.022510323  0.027592153 0.00054574872            0           25            0           25            0           25 
  627000    0.7080418   0.62809786   -6.0993599     1.061984   -5.0373759   -4.3104108   -6.0993599        15625   0.64386329   0.61520257   0.62522772 -0.044559018 -0.024627637 0.0078440438            0           25            0           25            0           25 
  628000    0.7135957   0.59402712   -6.1077283    1.0703143    -5.037414   -4.3498826   -6.1077283        15625   0.63700366   0.55414002   0.59093768 -0.011608617 -0.0047398594 -0.0014272393            0           25            0           25            0           25 
  629000   0.70936528    0.6338054   -6.1013456    1.0639691   -5.0373765   -4.3038054   -6.1013456        15625   0.74539326   0.59301018   0.56301277 -0.0071131784  0.036489147  0.016712616            0           25            0           25            0           25 
  630000    0.7126709   0.60827557   -6.1063248    1.0689272   -5.0373976    -4.333375   -6.1063248        15625   0.61035499   0.59883651   0.61563522    0.0507119 -0.043030665 -0.046966621            0           25            0           25            0           25 
  631000    0.7100131    0.6331911   -6.1023383    1.0649408   -5.0373976   -4.3045375   -6.1023383        15625   0.62964995   0.58310062   0.68682273 -0.025183287  0.055625922 0.0054140873            0           25            0           25            0           25 
  632000   0.71985206   0.54787569   -6.1170748    1.0796981   -5.0373767   -4.4032613   -6.1170748        15625   0.57366657   0.52559357   0.54436692  0.036707728 -0.0046054186  0.017022505            0           25            0           25            0           25 
  633000   0.70999048   0.63281653   -6.1023195    1.0649068   -5.0374127   -4.3049862   -6.1023195        15625   0.68642138   0.68420757   0.52782064   0.06296738 -0.074937201  0.017045183            0           25            0           25            0           25 
  634000   0.70206723   0.67870521    -6.090375    1.0530228   -5.0373522   -4.2518137    -6.090375        15625   0.58395725   0.70095852   0.75119987 -0.022771456  0.040443294 0.0029764124            0           25            0           25            0           25 
  635000   0.71424174    0.5791252   -6.1086889    1.0712833   -5.0374056   -4.3671218   -6.1086889        15625   0.61729662   0.53228538    0.5877936  0.058423177 -0.015648692  0.027374043            0           25            0           25            0           25 
  636000   0.70878463   0.62027521   -6.1004684    1.0630982   -5.0373702   -4.3194591   -6.1004684        15625   0.53416641   0.71627289   0.61038632 -0.0014492706 -0.034647285  0.060138852            0           25            0           25            0           25 
  637000   0.70585777    0.6470981   -6.0960655    1.0587082   -5.0373573   -4.2884011   -6.0960655        15625    0.6398025   0.61259888   0.68889292 -0.047150829 -0.075135317 -0.00079165607            0           25            0           25            0           25 
  638000   0.70894963   0.62180432   -6.1007156    1.0633457   -5.0373699    -4.317689   -6.1007156        15625   0.58424646   0.66736686   0.61379963  0.010085433 0.0071447711  0.044685189            0           25            0           25            0           25 
  639000   0.70727298   0.63321818   -6.0982206    1.0608309   -5.0373897   -4.3044983   -6.0982206        15625   0.63448321   0.58136777   0.68380356 -0.031535543  0.038063034  0.011835126            0           25            0           25            0           25 
  640000   0.70858583    0.6515597   -6.1001644       1.0628   -5.0373644   -4.2832443   -6.1001644        15625   0.61967997   0.72182382   0.61317532 -0.034127828 -0.0026491541 -0.0095578763            0           25            0           25            0           25 
  641000   0.71217214   0.60048368   -6.1055527    1.0681791   -5.0373736   -4.3423694   -6.1055527        15625   0.60344185   0.64190887   0.55610031  0.025765475  0.031653116 0.0011678364            0           25            0           25            0           25 
  642000   0.70991472   0.62345188   -6.1022043    1.0647932   -5.0374111   -4.3158233   -6.1022043        15625   0.65093956   0.58944711   0.62996898  -0.02198451   0.05193044 -0.028253244            0           25            0           25            0           25 
  643000   0.71067883   0.62242843   -6.1033067    1.0659393   -5.0373674   -4.3169641   -6.1033067        15625   0.61621799   0.57237069    0.6786966 0.0077144144 -0.029556565  -0.06686161            0           25            0           25            0           25 
  644000    0.7101338    0.6178629   -6.1025078    1.0651218    -5.037386   -4.3222669   -6.1025078        15625   0.58725481   0.71643922   0.54989468 -0.039103635 -0.0059986215 -0.060232778            0           25            0           25            0           25 
  645000    0.7077149   0.64611122   -6.0989119    1.0614937   -5.0374182   -4.2896043   -6.0989119        15625   0.65331372   0.67724979   0.60777016  0.022428852  0.047906318  0.018483495            0           25            0           25            0           25 
  646000   0.71431199   0.58046298   -6.1087763    1.0713886   -5.0373877   -4.3655555   -6.1087763        15625   0.64070777   0.56241908   0.53826209   0.01779496 -0.036735873 -0.00097400586            0           25            0           25            0           25 
  647000   0.71092647   0.62487418   -6.1036318    1.0663107   -5.0373211   -4.3140871   -6.1036318        15625   0.63258056   0.61896396   0.62307801  0.023194506 -0.006174828 -0.025448807            0           25            0           25            0           25 
  648000   0.71133712   0.62136614   -6.1043509    1.0669266   -5.0374242   -4.3182504   -6.1043509        15625   0.65176781   0.57242457   0.63990603 0.0027739321 0.0028181525 -0.026968955            0           25            0           25            0           25 
  649000   0.70789069   0.64659879   -6.0991829    1.0617574   -5.0374256   -4.2890473   -6.0991829        15625   0.65004969    0.5991385   0.69060819 -0.067839487 -0.029563633  0.045301983            0           25            0           25            0           25 
  650000   0.70725673   0.63961466   -6.0981786    1.0608065   -5.0373721   -4.2970774   -6.0981786        15625   0.52708546   0.69486156   0.69689696  0.039203235 -0.036437597 -0.063787049            0           25            0           25            0           25 
  651000   0.71072926   0.62448908   -6.1033911    1.0660149   -5.0373762   -4.3145879   -6.1033911        15625   0.63443179   0.56349588   0.67553958 -0.0095470691  0.037379145  0.020516385            0           25            0           25            0           25 
  652000   0.71284182   0.60824303   -6.1065958    1.0691835   -5.0374123   -4.3334273   -6.1065958        15625   0.58806169   0.54919615   0.68747125  0.022694122 -0.054597669  0.021920281            0           25            0           25            0           25 
  653000   0.71207845   0.60758062   -6.1054359    1.0680386   -5.0373974   -4.3341791   -6.1054359        15625   0.54335243   0.64911499   0.63027445  0.066479151   0.03007508 -0.072186141            0           25            0           25            0           25 
  654000   0.70762493    0.6494608   -6.0987036    1.0613588   -5.0373448   -4.2856541   -6.0987036        15625   0.61283874   0.67898627   0.65655738  0.021210494 -0.0050185693 -0.012227771            0           25            0           25            0           25 
  655000   0.70385549   0.66377276   -6.0930503     1.055705   -5.0373452   -4.2690897   -6.0930503        15625   0.68396378   0.65497328    0.6523812 0.0010372151 -0.026092478 -0.065360768            0           25            0           25            0           25 
  656000   0.71056666   0.61432989   -6.1031587     1.065771   -5.0373877   -4.3263577   -6.1031587        15625   0.58651282   0.66957518   0.58690166 -0.031782191 -0.011851125 -0.062385264            0           25            0           25            0           25 
  657000   0.71238391   0.61621397   -6.1059125    1.0684967   -5.0374158   -4.3242052   -6.1059125        15625   0.63740394   0.62925478   0.58198318 -0.056732564  0.015334962  0.024043727            0           25            0           25            0           25 
  658000   0.70990508   0.62941641   -6.1021982    1.0647787   -5.0374195   -4.3089282   -6.1021982        15625   0.67354926   0.55589404   0.65880593 0.0095242267 -0.020519837  0.051176637            0           25            0           25            0           25 
  659000    0.7129361    0.6066586    -6.106731    1.0693249   -5.0374061   -4.3352549    -6.106731        15625   0.58495549   0.61177348   0.62324682   0.05438411 -0.030117987 -0.033625509            0           25            0           25            0           25 
  660000   0.70792354   0.66300192   -6.0992039    1.0618067   -5.0373973   -4.2700339   -6.0992039        15625   0.70649242   0.60666521   0.67584812 -0.033711544 -0.024648734  0.017265022            0           25            0           25            0           25 
  661000   0.70863398   0.63925662   -6.1002866    1.0628722   -5.0374143    -4.297534   -6.1002866        15625   0.60887131   0.66339508   0.64550347  0.044713494  0.014716135  0.018041397            0           25            0           25            0           25 
  662000   0.70858041   0.62728925   -6.1001454    1.0627919   -5.0373535   -4.3113243   -6.1001454        15625   0.58746916   0.69956886   0.59482973 -0.0091726501  0.027110186 -0.0077100537            0           25            0           25            0           25 
  663000   0.70667811   0.64631472   -6.0973444    1.0599386   -5.0374058   -4.2893563   -6.0973444        15625   0.67565598   0.59042818   0.67286001 -0.032347519  0.034662063  0.019299488            0           25            0           25            0           25 
  664000   0.70758145   0.65319383   -6.0986889    1.0612936   -5.0373953   -4.2813839   -6.0986889        15625   0.65409973    0.6560578   0.64942394 0.00093095579  0.029679811 -0.094077318            0           25            0           25            0           25 
  665000   0.70801845   0.62692624   -6.0993151     1.061949   -5.0373661    -4.311757   -6.0993151        15625   0.56540975   0.67619578   0.63917321  0.013895945  0.035539547 -0.023822849            0           25            0           25            0           25 
  666000   0.70727987   0.65302676    -6.098248    1.0608412   -5.0374067   -4.2815887    -6.098248        15625   0.59831256   0.67340161   0.68736613  0.044745715 0.0011769096 -0.046334874            0           25            0           25            0           25 
  667000   0.71346079   0.58210039   -6.1074834    1.0701119   -5.0373715   -4.3636442   -6.1074834        15625   0.58585926   0.57998494   0.58045698 -0.045137052 -0.026453365 -0.083546868            0           25            0           25            0           25 
  668000   0.71617584   0.58506561   -6.1116194    1.0741842   -5.0374352    -4.360276   -6.1116194        15625   0.66501846   0.51502713   0.57515125  0.051023173  0.019532762 0.0072608375            0           25            0           25            0           25 
  669000   0.70687377   0.64443399   -6.0975821    1.0602321     -5.03735   -4.2914773   -6.0975821        15625   0.64466049   0.64220603   0.64643545 -0.028291149  0.049994004 -0.019119859            0           25            0           25            0           25 
  670000   0.71442673   0.59664527   -6.1089936    1.0715607   -5.0374329   -4.3468712   -6.1089936        15625    0.5662383   0.63271613   0.59098138 -0.047389173  -0.06618243 0.0056674431            0           25            0           25            0           25 
  671000   0.71212748   0.60712955   -6.1055173    1.0681121   -5.0374052   -4.3347089   -6.1055173        15625   0.64727062   0.62140921    0.5527088 0.0040615808  0.026408928  0.035925304            0           25            0           25            0           25 
  672000   0.70456722   0.64284163   -6.0941382    1.0567725   -5.0373656    -4.293336   -6.0941382        15625   0.65499223   0.65535183   0.61818083 -0.0080000473 -0.0066792885  0.023966726            0           25            0           25            0           25 
  673000   0.70533735    0.6545771   -6.0953479    1.0579277   -5.0374202   -4.2798078   -6.0953479        15625    0.5829929   0.68403012   0.69670829 -0.013020981 -0.077077017 -0.072492207            0           25            0           25            0           25 
  674000   0.71396061   0.59113092   -6.1082874    1.0708616   -5.0374258   -4.3532465   -6.1082874        15625   0.53494407   0.64424833   0.59420036  0.011843205  0.018356595  0.019136419            0           25            0           25            0           25 
  675000   0.70978304    0.6336429   -6.1019986    1.0645957   -5.0374029   -4.3040199   -6.1019986        15625   0.63118568    0.6239068   0.64583621 -0.041006796 0.0055219777 -0.026596814            0           25            0           25            0           25 
  676000   0.71287057   0.60203752     -6.10661    1.0692266   -5.0373834   -4.3405807     -6.10661        15625   0.57826385   0.52551089   0.70233783 0.0087348312 -0.048342063  0.010038217            0           25            0           25            0           25 
  677000   0.70947023   0.61648588   -6.1015205    1.0641265    -5.037394   -4.3238687   -6.1015205        15625   0.67827882   0.63223194   0.53894688  0.028810932  0.010340933  0.041948226            0           25            0           25            0           25 
  678000   0.71053438    0.6128346   -6.1031279    1.0657226   -5.0374053    -4.328106   -6.1031279        15625   0.53326716   0.64679976   0.65843688  0.014296097 -0.004906632 -0.074668636            0           25            0           25            0           25 
  679000   0.70915865   0.62237643   -6.1010058    1.0636592   -5.0373466   -4.3170035   -6.1010058        15625   0.62703777   0.56435124   0.67574029 -0.015818001 0.0056195431 -0.044632969            0           25            0           25            0           25 
  680000   0.71590471   0.56825826   -6.1111605    1.0737775    -5.037383   -4.3796767   -6.1111605        15625   0.51508276   0.61899161   0.57070042  0.029937946  0.015761781 -0.033354025            0           25            0           25            0           25 
  681000   0.70996859   0.61879505   -6.1022486     1.064874   -5.0373746   -4.3211766   -6.1022486        15625   0.54954684   0.68372156   0.62311675 -0.016578466  0.011967332 -0.021894967            0           25            0           25            0           25 
  682000    0.7089426   0.61966616   -6.1007364    1.0633351   -5.0374013   -4.3201951   -6.1007364        15625   0.59480559   0.64695289   0.61724002 0.0088800001  0.031869481 -0.014369888            0           25            0           25            0           25 
  683000   0.71024171   0.61051475   -6.1027154    1.0652837   -5.0374317   -4.3308174   -6.1027154        15625   0.60460248   0.60847313   0.61846863 -0.00098671814 -0.062104615 -0.022463873            0           25            0           25            0           25 
  684000   0.71263936   0.61444939    -6.106286    1.0688799   -5.0374062   -4.3262379    -6.106286        15625   0.58482508   0.59614423   0.66237887 -0.0033227019   0.05593244  0.071374256            0           25            0           25            0           25 
  685000   0.70451064   0.66228736   -6.0940456    1.0566877   -5.0373579   -4.2708216   -6.0940456        15625    0.6704245   0.66514365   0.65129393 -0.021908939 -0.037444543 -0.029505239            0           25            0           25            0           25 
  686000   0.71049187   0.61083009    -6.103041    1.0656589   -5.0373821   -4.3304029    -6.103041        15625   0.65880185   0.61337113   0.56031729 -0.0073457161  0.018254769    -0.056925            0           25            0           25            0           25 
  687000   0.71530105   0.58819597   -6.1103183    1.0728721   -5.0374462   -4.3566639   -6.1103183        15625   0.61283547   0.58868026   0.56307218 -0.018206292  0.038214941  0.015356825            0           25            0           25            0           25 
  688000   0.70465255   0.65910949   -6.0942392    1.0569005   -5.0373386   -4.2744804   -6.0942392        15625   0.60353073   0.66186307   0.71193469 -0.011817098 0.0082378202  0.028176554            0           25            0           25            0           25 
  689000   0.71148018   0.59901827   -6.1045443    1.0671412    -5.037403   -4.3440948   -6.1045443        15625   0.61204086   0.62505775    0.5599562 -0.054129763 -0.019016108  0.040104818            0           25            0           25            0           25 
  690000   0.71263674   0.59730265   -6.1062916    1.0688759   -5.0374156   -4.3460931   -6.1062916        15625   0.58391681    0.6221373   0.58585384 -0.028361935  -0.03391764 0.0024438516            0           25            0           25            0           25 
  691000   0.71080867   0.62745377   -6.1035439     1.066134   -5.0374099   -4.3111902   -6.1035439        15625   0.60355653   0.62020109   0.65860368  -0.06566374  0.033020861 -0.0063973068            0           25            0           25            0           25 
  692000   0.70498321   0.66670497   -6.0947967    1.0573965   -5.0374002   -4.2657509   -6.0947967        15625   0.68384935   0.67064295   0.64562262  -0.05029932 -0.053523818 -0.010654441            0           25            0           25            0           25 
  693000   0.70491385    0.6489715   -6.0946844    1.0572924    -5.037392   -4.2862676   -6.0946844        15625   0.63571967   0.63574946   0.67544535 -0.030652675  0.008213561  0.019713936            0           25            0           25            0           25 
  694000   0.71258323   0.61726996   -6.1061841    1.0687957   -5.0373884   -4.3229556   -6.1061841        15625   0.64908209   0.61391876   0.58880904  -0.04277414 -0.025982381  0.010600648            0           25            0           25            0           25 
  695000   0.71087929   0.61171667   -6.1036171    1.0662399   -5.0373772   -4.3293718   -6.1036171        15625    0.6606979   0.60648125   0.56797087 -0.021479732 0.0096210021  0.016953561            0           25            0           25            0           25 
  696000   0.70930236   0.61245098   -6.1012352    1.0638747   -5.0373604   -4.3285051   -6.1012352        15625   0.65521976   0.59755156   0.58458161  -0.02652909 0.0059079441  0.009893663            0           25            0           25            0           25 
  697000   0.70832981    0.6351846   -6.0997913     1.062416   -5.0373753   -4.3022079   -6.0997913        15625   0.58280078    0.6628429   0.65991011 -0.020845838 0.0044265101  0.019485117            0           25            0           25            0           25 
  698000   0.71474586   0.59563566   -6.1094365    1.0720394   -5.0373971    -4.348004   -6.1094365        15625   0.59318558   0.59986857   0.59385283 -0.038728387  0.041616196 -0.00012047114            0           25            0           25            0           25 
  699000   0.70485492   0.65441293    -6.094585    1.0572041    -5.037381   -4.2799586    -6.094585        15625   0.68725845    0.6912524   0.58472796 -0.0058599014  0.046730171 -0.030525657            0           25            0           25            0           25 
  700000    0.7158691   0.58417301    -6.111139    1.0737241   -5.0374149   -4.3612887    -6.111139        15625   0.59540207   0.56634751   0.59076944 -0.040028152  0.034930775 0.0060860675            0           25            0           25            0           25 
  701000   0.70907939   0.63307581   -6.1009256    1.0635403   -5.0373853   -4.3046586   -6.1009256        15625   0.64765495   0.68217285   0.56939963  0.019291656  0.012482897 0.0036934716            0           25            0           25            0           25 
  702000   0.70971138   0.62900358   -6.1018619    1.0644882   -5.0373737   -4.3093603   -6.1018619        15625   0.64589457   0.59575691   0.64535924   0.02096951  0.069225207 0.0098096915            0           25            0           25            0           25 
  703000   0.70555823   0.66633517   -6.0956577     1.058259   -5.0373987   -4.2661775   -6.0956577        15625   0.65262701   0.66983509    0.6765434 -0.038629914  0.013252975 0.00087416936            0           25            0           25            0           25 
  704000   0.70819422   0.63934415   -6.0996073    1.0622126   -5.0373947    -4.297413   -6.0996073        15625   0.62185536   0.66290891   0.63326818 -0.016450746  0.058842831 0.0026362118            0           25            0           25            0           25 
  705000   0.70756598   0.65774922   -6.0986723    1.0612704    -5.037402   -4.2761182   -6.0986723        15625   0.67903163    0.6526126   0.64160342  0.017093698 -0.075760356  -0.02444447            0           25            0           25            0           25 
  706000   0.70722493   0.63961291   -6.0981075    1.0607588   -5.0373486   -4.2970559   -6.0981075        15625   0.60775245   0.65995237   0.65113391   0.01067215 -0.026812006 -0.0030739093            0           25            0           25            0           25 
  707000   0.70341802   0.67148939   -6.0923656    1.0550489   -5.0373168     -4.26013   -6.0923656        15625   0.67843113   0.69458558   0.64145146 -0.024193254  0.028924794  0.017285147            0           25            0           25            0           25 
  708000   0.70614199   0.64966115   -6.0965355    1.0591345    -5.037401   -4.2854784   -6.0965355        15625   0.63031015   0.65062986   0.66804345 0.0085494975 -0.031819446 -0.015182165            0           25            0           25            0           25 
  709000   0.71294616   0.61086665   -6.1067219      1.06934   -5.0373818   -4.3303603   -6.1067219        15625   0.59861898   0.62074775   0.61323322 -0.038762345 -0.0043373252 -0.039574253            0           25            0           25            0           25 
  710000   0.71163622    0.6012018   -6.1047752    1.0673753      -5.0374   -4.3415646   -6.1047752        15625    0.5555126   0.66966811   0.57842468  0.059374694 -0.079524101 -0.059403348            0           25            0           25            0           25 
  711000   0.71126549   0.62097345   -6.1042152    1.0668192    -5.037396   -4.3186767   -6.1042152        15625   0.60517733   0.62067706   0.63706598 -0.020992316 -0.0047236078  0.038798041            0           25            0           25            0           25 
  712000   0.70744377   0.62021016   -6.0984483    1.0610871   -5.0373613   -4.3195255   -6.0984483        15625   0.57561191   0.64405537   0.64096321  0.034636294 -0.0064265285  0.020165966            0           25            0           25            0           25 
  713000   0.71472682   0.59904966   -6.1094518    1.0720108   -5.0374409   -4.3440964   -6.1094518        15625   0.59081893   0.63477341   0.57155663  0.028540259 -0.025418789  0.060135923            0           25            0           25            0           25 
  714000   0.70728367    0.6268382   -6.0982126    1.0608469   -5.0373657   -4.3118585   -6.0982126        15625   0.63718304   0.61208854   0.63124301 -0.039232521  0.038750912 0.0037121163            0           25            0           25            0           25 
  715000   0.71068738   0.62294156   -6.1033498    1.0659521   -5.0373977   -4.3164006   -6.1033498        15625   0.58285794    0.6543364   0.63163034  0.043108663  0.054122925  -0.03150732            0           25            0           25            0           25 
  716000   0.71207508   0.59005939   -6.1053981    1.0680335   -5.0373646   -4.3544255   -6.1053981        15625   0.54816711   0.64379322   0.57821784 -0.045130241  0.099704762 -0.029162535            0           25            0           25            0           25 
  717000   0.70752581   0.65772962   -6.0985803    1.0612101   -5.0373702    -4.276109   -6.0985803        15625   0.65379568   0.64734324   0.67204992 0.0041673089 -0.00071077118  0.005663005            0           25            0           25            0           25 
  718000   0.71135293   0.62282829    -6.104333    1.0669504   -5.0373827   -4.3165166    -6.104333        15625   0.63548904   0.59073822    0.6422576 -0.024296305 -0.046549649  0.035436469            0           25            0           25            0           25 
  719000   0.71485944   0.57592436   -6.1095421    1.0722097   -5.0373324   -4.3707533   -6.1095421        15625   0.58976872   0.55246353   0.58554085    0.0206945 -0.017865916  -0.03422096            0           25            0           25            0           25 
  720000   0.71294189   0.60652243   -6.1067497    1.0693336   -5.0374161   -4.3354226   -6.1067497        15625   0.61270555   0.58953068   0.61733105  0.045003015   0.05974707 -0.018931086            0           25            0           25            0           25 
  721000   0.71509197   0.58866421    -6.109936    1.0725585   -5.0373775   -4.3560532    -6.109936        15625   0.59415222   0.58856928   0.58327115  0.020769576 -0.015989881  -0.01648403            0           25            0           25            0           25 
  722000   0.71142023   0.60536616   -6.1044724    1.0670513   -5.0374211   -4.3367659   -6.1044724        15625   0.60142854   0.64284604   0.57182391 -0.024493911 -0.00090003168 -0.063671526            0           25            0           25            0           25 
  723000   0.70726169   0.64232842   -6.0982112    1.0608139   -5.0373972   -4.2939615   -6.0982112        15625   0.62046235   0.66936439   0.63715854  0.022233794 -0.015162137 0.0027876964            0           25            0           25            0           25 
  724000   0.71790193   0.57679281   -6.1142438    1.0767731   -5.0374706   -4.3698864   -6.1142438        15625   0.59557779   0.59379127   0.54100937 -0.028362941 -0.033489186 -0.020661455            0           25            0           25            0           25 
  725000   0.70679601   0.65576705   -6.0975036    1.0601155   -5.0373882   -4.2783985   -6.0975036        15625   0.67067033    0.6603276   0.63630323 -0.030169651  0.034069524 -0.066869469            0           25            0           25            0           25 
  726000   0.71127656   0.60561732   -6.1042576    1.0668358   -5.0374218   -4.3364758   -6.1042576        15625   0.68214245   0.60936231   0.52534721  0.046126382 -0.037009097 -0.031390504            0           25            0           25            0           25 
  727000   0.71032047   0.62104975   -6.1027963    1.0654018   -5.0373945   -4.3185869   -6.1027963        15625   0.63993644   0.62193953   0.60127328  0.035708976 -0.044029291 -0.028096867            0           25            0           25            0           25 
  728000   0.71826035   0.55730617   -6.1146941    1.0773107   -5.0373834   -4.3923531   -6.1146941        15625   0.55994153   0.52998842   0.58198856  0.021268635  0.044612541 0.0044977638            0           25            0           25            0           25 
  729000   0.70437765   0.66135812   -6.0938824    1.0564882   -5.0373942   -4.2719334   -6.0938824        15625   0.63926497   0.58784254   0.75696685 -0.018914393 -0.025396054  0.047455241            0           25            0           25            0           25 
  730000   0.70742276   0.62595558   -6.0984054    1.0610555   -5.0373499   -4.3128642   -6.0984054        15625   0.61853439   0.62598924    0.6333431 -0.047728824  0.030838332    0.0317399            0           25            0           25            0           25 
  731000   0.70677302   0.62968421   -6.0974743     1.060081   -5.0373933   -4.3085921   -6.0974743        15625   0.62548045    0.6587894   0.60478278   0.05416256 -0.041192754  0.019328252            0           25            0           25            0           25 
  732000   0.70706448   0.65381299   -6.0979234    1.0605182   -5.0374052   -4.2806772   -6.0979234        15625   0.69888183   0.69552165   0.56703548  0.060253963 -0.00033738135 -0.017368416            0           25            0           25            0           25 
  733000   0.70337604   0.67879024   -6.0923538    1.0549859   -5.0373679    -4.251731   -6.0923538        15625   0.66695759    0.6432455   0.72616764 -0.070011803 -0.015758584  0.040968171            0           25            0           25            0           25 
  734000   0.71021749   0.62610402   -6.1026201    1.0652473   -5.0373728   -4.3127154   -6.1026201        15625   0.67598174   0.59385423   0.60847608  0.028535259  0.029332681 0.0013013982            0           25            0           25            0           25 
  735000   0.70982552    0.6087652   -6.1020945    1.0646594   -5.0374351   -4.3328457   -6.1020945        15625   0.71303525   0.58257638   0.53068397 -0.045976919  0.019171582  0.030352034            0           25            0           25            0           25 
  736000    0.7127847   0.59904409   -6.1065127    1.0690979   -5.0374149   -4.3440768   -6.1065127        15625   0.63222564   0.55004671   0.61485994 -0.018600566 -0.042946534  0.023224432            0           25            0           25            0           25 
  737000   0.71311211    0.6015864   -6.1070045    1.0695889   -5.0374156    -4.341135   -6.1070045        15625   0.55533188   0.57303238   0.67639495  0.007107489  0.021087857 -0.055238044            0           25            0           25            0           25 
  738000   0.71293167   0.61233481   -6.1067565    1.0693183   -5.0374382   -4.3287174   -6.1067565        15625   0.60489068    0.5929097   0.63920403 -0.060260976  0.047429705  0.030143248            0           25            0           25            0           25 
  739000   0.70747849   0.64341163   -6.0985605    1.0611391   -5.0374213   -4.2927319   -6.0985605        15625   0.70487222   0.64097572   0.58438696 0.0055162048 0.0091629466 -0.028465876            0           25            0           25            0           25 
  740000   0.71145248   0.60615835   -6.1044801    1.0670997   -5.0373804   -4.3358082   -6.1044801        15625   0.64975719   0.55383612   0.61488173 -0.020221927  0.019697642  0.012165582            0           25            0           25            0           25 
  741000   0.71201466   0.60856241   -6.1053814    1.0679429   -5.0374385   -4.3330839   -6.1053814        15625   0.63784467   0.60094023   0.58690232 -0.027473514 0.0062230559  0.024045009            0           25            0           25            0           25 
  742000   0.70820422   0.61608869   -6.0996444    1.0622276   -5.0374167   -4.3243511   -6.0996444        15625   0.60714316   0.65682203   0.58430088 -0.042465546 -0.066958753 0.0037070434            0           25            0           25            0           25 
  743000   0.71065894   0.62386011    -6.103308    1.0659094   -5.0373986   -4.3153382    -6.103308        15625    0.5613966   0.67723853   0.63294522 -0.0055950607  0.036884157  0.018475273            0           25            0           25            0           25 
  744000   0.71142616   0.62263714    -6.104476    1.0670602   -5.0374158    -4.316771    -6.104476        15625   0.54877092   0.58814035   0.73100015 0.0056126597  0.013889595 -0.030241229            0           25            0           25            0           25 
  745000   0.71009653   0.63005816   -6.1024705    1.0650659   -5.0374046   -4.3081706   -6.1024705        15625   0.61987037   0.61803704   0.65226706 -0.031896393 -0.057521692 -0.046471159            0           25            0           25            0           25 
  746000   0.70554369   0.66593986   -6.0956322    1.0582371   -5.0373951   -4.2666314   -6.0956322        15625    0.7152398   0.62522767   0.65735212   0.02185825  0.035148573 0.0037562054            0           25            0           25            0           25 
  747000   0.71412935   0.59198385   -6.1085396    1.0711147   -5.0374249   -4.3522584   -6.1085396        15625   0.60436255   0.56191982   0.60966916 -0.066197218  0.049929248   -0.1211993            0           25            0           25            0           25 
  748000   0.70864731   0.64485209   -6.1003469    1.0628922   -5.0374547   -4.2910981   -6.1003469        15625   0.66670559   0.60925609   0.65859458 -0.038722837  0.020123262  0.032594158            0           25            0           25            0           25 
  749000   0.71758196   0.57633887   -6.1137349    1.0762932   -5.0374417   -4.3703828   -6.1137349        15625   0.57452809   0.59133599   0.56315252 -0.086043488  0.033357881 0.0059556553            0           25            0           25            0           25 
  750000   0.71116669   0.59383466   -6.1040658     1.066671   -5.0373948   -4.3500862   -6.1040658        15625   0.60407791   0.60581417   0.57161192 -0.0047259566  0.058865761 -0.0057344636            0           25            0           25            0           25 
Loop time of 4501.41 on 16 procs for 200000 steps with 13500 atoms

Pair  time (%) = 1022.06 (22.7053)
Neigh time (%) = 64.4658 (1.43212)
Comm  time (%) = 2314.93 (51.4269)
Outpt time (%) = 3.68065 (0.0817667)
Other time (%) = 1096.27 (24.3539)

Nlocal:    843.75 ave 855 max 831 min
Histogram: 1 1 1 3 1 2 2 2 1 2
Nghost:    6266.56 ave 6288 max 6246 min
Histogram: 3 2 0 1 2 3 0 1 1 3
Neighs:    190738 ave 199275 max 182041 min
Histogram: 4 2 1 1 0 0 0 2 1 5

Total # of neighbors = 3051811
Ave neighs/atom = 226.06
Neighbor list builds = 6721
Dangerous builds = 0
